*Heading
Commercial reference: deformable sphere impact on deformable cantilever
*Preprint, echo=NO, model=NO, history=NO, contact=NO
*Material, name=BEAM_MAT
*Density
1.200000000000e+03
*Elastic
2.500000000000e+08, 3.000000000000e-01
*Material, name=SPHERE_MAT
*Density
3.500000000000e+03
*Elastic
5.000000000000e+06, 3.000000000000e-01
*Surface Interaction, name=FRICTIONLESS_CONTACT
*Surface Behavior, pressure-overclosure=LINEAR
5.000000000000e+09
*Friction
0.
*Part, name=BEAM
*Node
1, 0.000000000000e+00, -4.000000000000e-02, -2.000000000000e-02
2, 1.000000000000e-02, -4.000000000000e-02, -2.000000000000e-02
3, 2.000000000000e-02, -4.000000000000e-02, -2.000000000000e-02
4, 3.000000000000e-02, -4.000000000000e-02, -2.000000000000e-02
5, 4.000000000000e-02, -4.000000000000e-02, -2.000000000000e-02
6, 5.000000000000e-02, -4.000000000000e-02, -2.000000000000e-02
7, 6.000000000000e-02, -4.000000000000e-02, -2.000000000000e-02
8, 7.000000000000e-02, -4.000000000000e-02, -2.000000000000e-02
9, 8.000000000000e-02, -4.000000000000e-02, -2.000000000000e-02
10, 9.000000000000e-02, -4.000000000000e-02, -2.000000000000e-02
11, 1.000000000000e-01, -4.000000000000e-02, -2.000000000000e-02
12, 1.100000000000e-01, -4.000000000000e-02, -2.000000000000e-02
13, 1.200000000000e-01, -4.000000000000e-02, -2.000000000000e-02
14, 1.300000000000e-01, -4.000000000000e-02, -2.000000000000e-02
15, 1.400000000000e-01, -4.000000000000e-02, -2.000000000000e-02
16, 1.500000000000e-01, -4.000000000000e-02, -2.000000000000e-02
17, 1.600000000000e-01, -4.000000000000e-02, -2.000000000000e-02
18, 1.700000000000e-01, -4.000000000000e-02, -2.000000000000e-02
19, 1.800000000000e-01, -4.000000000000e-02, -2.000000000000e-02
20, 1.900000000000e-01, -4.000000000000e-02, -2.000000000000e-02
21, 2.000000000000e-01, -4.000000000000e-02, -2.000000000000e-02
22, 2.100000000000e-01, -4.000000000000e-02, -2.000000000000e-02
23, 2.200000000000e-01, -4.000000000000e-02, -2.000000000000e-02
24, 2.300000000000e-01, -4.000000000000e-02, -2.000000000000e-02
25, 2.400000000000e-01, -4.000000000000e-02, -2.000000000000e-02
26, 2.500000000000e-01, -4.000000000000e-02, -2.000000000000e-02
27, 2.600000000000e-01, -4.000000000000e-02, -2.000000000000e-02
28, 2.700000000000e-01, -4.000000000000e-02, -2.000000000000e-02
29, 2.800000000000e-01, -4.000000000000e-02, -2.000000000000e-02
30, 2.900000000000e-01, -4.000000000000e-02, -2.000000000000e-02
31, 3.000000000000e-01, -4.000000000000e-02, -2.000000000000e-02
32, 3.100000000000e-01, -4.000000000000e-02, -2.000000000000e-02
33, 3.200000000000e-01, -4.000000000000e-02, -2.000000000000e-02
34, 3.300000000000e-01, -4.000000000000e-02, -2.000000000000e-02
35, 3.400000000000e-01, -4.000000000000e-02, -2.000000000000e-02
36, 3.500000000000e-01, -4.000000000000e-02, -2.000000000000e-02
37, 3.600000000000e-01, -4.000000000000e-02, -2.000000000000e-02
38, 3.700000000000e-01, -4.000000000000e-02, -2.000000000000e-02
39, 3.800000000000e-01, -4.000000000000e-02, -2.000000000000e-02
40, 3.900000000000e-01, -4.000000000000e-02, -2.000000000000e-02
41, 4.000000000000e-01, -4.000000000000e-02, -2.000000000000e-02
42, 4.100000000000e-01, -4.000000000000e-02, -2.000000000000e-02
43, 4.200000000000e-01, -4.000000000000e-02, -2.000000000000e-02
44, 4.300000000000e-01, -4.000000000000e-02, -2.000000000000e-02
45, 4.400000000000e-01, -4.000000000000e-02, -2.000000000000e-02
46, 4.500000000000e-01, -4.000000000000e-02, -2.000000000000e-02
47, 4.600000000000e-01, -4.000000000000e-02, -2.000000000000e-02
48, 4.700000000000e-01, -4.000000000000e-02, -2.000000000000e-02
49, 4.800000000000e-01, -4.000000000000e-02, -2.000000000000e-02
50, 4.900000000000e-01, -4.000000000000e-02, -2.000000000000e-02
51, 5.000000000000e-01, -4.000000000000e-02, -2.000000000000e-02
52, 5.100000000000e-01, -4.000000000000e-02, -2.000000000000e-02
53, 5.200000000000e-01, -4.000000000000e-02, -2.000000000000e-02
54, 5.300000000000e-01, -4.000000000000e-02, -2.000000000000e-02
55, 5.400000000000e-01, -4.000000000000e-02, -2.000000000000e-02
56, 5.500000000000e-01, -4.000000000000e-02, -2.000000000000e-02
57, 5.600000000000e-01, -4.000000000000e-02, -2.000000000000e-02
58, 5.700000000000e-01, -4.000000000000e-02, -2.000000000000e-02
59, 5.800000000000e-01, -4.000000000000e-02, -2.000000000000e-02
60, 5.900000000000e-01, -4.000000000000e-02, -2.000000000000e-02
61, 6.000000000000e-01, -4.000000000000e-02, -2.000000000000e-02
62, 0.000000000000e+00, -3.000000000000e-02, -2.000000000000e-02
63, 1.000000000000e-02, -3.000000000000e-02, -2.000000000000e-02
64, 2.000000000000e-02, -3.000000000000e-02, -2.000000000000e-02
65, 3.000000000000e-02, -3.000000000000e-02, -2.000000000000e-02
66, 4.000000000000e-02, -3.000000000000e-02, -2.000000000000e-02
67, 5.000000000000e-02, -3.000000000000e-02, -2.000000000000e-02
68, 6.000000000000e-02, -3.000000000000e-02, -2.000000000000e-02
69, 7.000000000000e-02, -3.000000000000e-02, -2.000000000000e-02
70, 8.000000000000e-02, -3.000000000000e-02, -2.000000000000e-02
71, 9.000000000000e-02, -3.000000000000e-02, -2.000000000000e-02
72, 1.000000000000e-01, -3.000000000000e-02, -2.000000000000e-02
73, 1.100000000000e-01, -3.000000000000e-02, -2.000000000000e-02
74, 1.200000000000e-01, -3.000000000000e-02, -2.000000000000e-02
75, 1.300000000000e-01, -3.000000000000e-02, -2.000000000000e-02
76, 1.400000000000e-01, -3.000000000000e-02, -2.000000000000e-02
77, 1.500000000000e-01, -3.000000000000e-02, -2.000000000000e-02
78, 1.600000000000e-01, -3.000000000000e-02, -2.000000000000e-02
79, 1.700000000000e-01, -3.000000000000e-02, -2.000000000000e-02
80, 1.800000000000e-01, -3.000000000000e-02, -2.000000000000e-02
81, 1.900000000000e-01, -3.000000000000e-02, -2.000000000000e-02
82, 2.000000000000e-01, -3.000000000000e-02, -2.000000000000e-02
83, 2.100000000000e-01, -3.000000000000e-02, -2.000000000000e-02
84, 2.200000000000e-01, -3.000000000000e-02, -2.000000000000e-02
85, 2.300000000000e-01, -3.000000000000e-02, -2.000000000000e-02
86, 2.400000000000e-01, -3.000000000000e-02, -2.000000000000e-02
87, 2.500000000000e-01, -3.000000000000e-02, -2.000000000000e-02
88, 2.600000000000e-01, -3.000000000000e-02, -2.000000000000e-02
89, 2.700000000000e-01, -3.000000000000e-02, -2.000000000000e-02
90, 2.800000000000e-01, -3.000000000000e-02, -2.000000000000e-02
91, 2.900000000000e-01, -3.000000000000e-02, -2.000000000000e-02
92, 3.000000000000e-01, -3.000000000000e-02, -2.000000000000e-02
93, 3.100000000000e-01, -3.000000000000e-02, -2.000000000000e-02
94, 3.200000000000e-01, -3.000000000000e-02, -2.000000000000e-02
95, 3.300000000000e-01, -3.000000000000e-02, -2.000000000000e-02
96, 3.400000000000e-01, -3.000000000000e-02, -2.000000000000e-02
97, 3.500000000000e-01, -3.000000000000e-02, -2.000000000000e-02
98, 3.600000000000e-01, -3.000000000000e-02, -2.000000000000e-02
99, 3.700000000000e-01, -3.000000000000e-02, -2.000000000000e-02
100, 3.800000000000e-01, -3.000000000000e-02, -2.000000000000e-02
101, 3.900000000000e-01, -3.000000000000e-02, -2.000000000000e-02
102, 4.000000000000e-01, -3.000000000000e-02, -2.000000000000e-02
103, 4.100000000000e-01, -3.000000000000e-02, -2.000000000000e-02
104, 4.200000000000e-01, -3.000000000000e-02, -2.000000000000e-02
105, 4.300000000000e-01, -3.000000000000e-02, -2.000000000000e-02
106, 4.400000000000e-01, -3.000000000000e-02, -2.000000000000e-02
107, 4.500000000000e-01, -3.000000000000e-02, -2.000000000000e-02
108, 4.600000000000e-01, -3.000000000000e-02, -2.000000000000e-02
109, 4.700000000000e-01, -3.000000000000e-02, -2.000000000000e-02
110, 4.800000000000e-01, -3.000000000000e-02, -2.000000000000e-02
111, 4.900000000000e-01, -3.000000000000e-02, -2.000000000000e-02
112, 5.000000000000e-01, -3.000000000000e-02, -2.000000000000e-02
113, 5.100000000000e-01, -3.000000000000e-02, -2.000000000000e-02
114, 5.200000000000e-01, -3.000000000000e-02, -2.000000000000e-02
115, 5.300000000000e-01, -3.000000000000e-02, -2.000000000000e-02
116, 5.400000000000e-01, -3.000000000000e-02, -2.000000000000e-02
117, 5.500000000000e-01, -3.000000000000e-02, -2.000000000000e-02
118, 5.600000000000e-01, -3.000000000000e-02, -2.000000000000e-02
119, 5.700000000000e-01, -3.000000000000e-02, -2.000000000000e-02
120, 5.800000000000e-01, -3.000000000000e-02, -2.000000000000e-02
121, 5.900000000000e-01, -3.000000000000e-02, -2.000000000000e-02
122, 6.000000000000e-01, -3.000000000000e-02, -2.000000000000e-02
123, 0.000000000000e+00, -2.000000000000e-02, -2.000000000000e-02
124, 1.000000000000e-02, -2.000000000000e-02, -2.000000000000e-02
125, 2.000000000000e-02, -2.000000000000e-02, -2.000000000000e-02
126, 3.000000000000e-02, -2.000000000000e-02, -2.000000000000e-02
127, 4.000000000000e-02, -2.000000000000e-02, -2.000000000000e-02
128, 5.000000000000e-02, -2.000000000000e-02, -2.000000000000e-02
129, 6.000000000000e-02, -2.000000000000e-02, -2.000000000000e-02
130, 7.000000000000e-02, -2.000000000000e-02, -2.000000000000e-02
131, 8.000000000000e-02, -2.000000000000e-02, -2.000000000000e-02
132, 9.000000000000e-02, -2.000000000000e-02, -2.000000000000e-02
133, 1.000000000000e-01, -2.000000000000e-02, -2.000000000000e-02
134, 1.100000000000e-01, -2.000000000000e-02, -2.000000000000e-02
135, 1.200000000000e-01, -2.000000000000e-02, -2.000000000000e-02
136, 1.300000000000e-01, -2.000000000000e-02, -2.000000000000e-02
137, 1.400000000000e-01, -2.000000000000e-02, -2.000000000000e-02
138, 1.500000000000e-01, -2.000000000000e-02, -2.000000000000e-02
139, 1.600000000000e-01, -2.000000000000e-02, -2.000000000000e-02
140, 1.700000000000e-01, -2.000000000000e-02, -2.000000000000e-02
141, 1.800000000000e-01, -2.000000000000e-02, -2.000000000000e-02
142, 1.900000000000e-01, -2.000000000000e-02, -2.000000000000e-02
143, 2.000000000000e-01, -2.000000000000e-02, -2.000000000000e-02
144, 2.100000000000e-01, -2.000000000000e-02, -2.000000000000e-02
145, 2.200000000000e-01, -2.000000000000e-02, -2.000000000000e-02
146, 2.300000000000e-01, -2.000000000000e-02, -2.000000000000e-02
147, 2.400000000000e-01, -2.000000000000e-02, -2.000000000000e-02
148, 2.500000000000e-01, -2.000000000000e-02, -2.000000000000e-02
149, 2.600000000000e-01, -2.000000000000e-02, -2.000000000000e-02
150, 2.700000000000e-01, -2.000000000000e-02, -2.000000000000e-02
151, 2.800000000000e-01, -2.000000000000e-02, -2.000000000000e-02
152, 2.900000000000e-01, -2.000000000000e-02, -2.000000000000e-02
153, 3.000000000000e-01, -2.000000000000e-02, -2.000000000000e-02
154, 3.100000000000e-01, -2.000000000000e-02, -2.000000000000e-02
155, 3.200000000000e-01, -2.000000000000e-02, -2.000000000000e-02
156, 3.300000000000e-01, -2.000000000000e-02, -2.000000000000e-02
157, 3.400000000000e-01, -2.000000000000e-02, -2.000000000000e-02
158, 3.500000000000e-01, -2.000000000000e-02, -2.000000000000e-02
159, 3.600000000000e-01, -2.000000000000e-02, -2.000000000000e-02
160, 3.700000000000e-01, -2.000000000000e-02, -2.000000000000e-02
161, 3.800000000000e-01, -2.000000000000e-02, -2.000000000000e-02
162, 3.900000000000e-01, -2.000000000000e-02, -2.000000000000e-02
163, 4.000000000000e-01, -2.000000000000e-02, -2.000000000000e-02
164, 4.100000000000e-01, -2.000000000000e-02, -2.000000000000e-02
165, 4.200000000000e-01, -2.000000000000e-02, -2.000000000000e-02
166, 4.300000000000e-01, -2.000000000000e-02, -2.000000000000e-02
167, 4.400000000000e-01, -2.000000000000e-02, -2.000000000000e-02
168, 4.500000000000e-01, -2.000000000000e-02, -2.000000000000e-02
169, 4.600000000000e-01, -2.000000000000e-02, -2.000000000000e-02
170, 4.700000000000e-01, -2.000000000000e-02, -2.000000000000e-02
171, 4.800000000000e-01, -2.000000000000e-02, -2.000000000000e-02
172, 4.900000000000e-01, -2.000000000000e-02, -2.000000000000e-02
173, 5.000000000000e-01, -2.000000000000e-02, -2.000000000000e-02
174, 5.100000000000e-01, -2.000000000000e-02, -2.000000000000e-02
175, 5.200000000000e-01, -2.000000000000e-02, -2.000000000000e-02
176, 5.300000000000e-01, -2.000000000000e-02, -2.000000000000e-02
177, 5.400000000000e-01, -2.000000000000e-02, -2.000000000000e-02
178, 5.500000000000e-01, -2.000000000000e-02, -2.000000000000e-02
179, 5.600000000000e-01, -2.000000000000e-02, -2.000000000000e-02
180, 5.700000000000e-01, -2.000000000000e-02, -2.000000000000e-02
181, 5.800000000000e-01, -2.000000000000e-02, -2.000000000000e-02
182, 5.900000000000e-01, -2.000000000000e-02, -2.000000000000e-02
183, 6.000000000000e-01, -2.000000000000e-02, -2.000000000000e-02
184, 0.000000000000e+00, -1.000000000000e-02, -2.000000000000e-02
185, 1.000000000000e-02, -1.000000000000e-02, -2.000000000000e-02
186, 2.000000000000e-02, -1.000000000000e-02, -2.000000000000e-02
187, 3.000000000000e-02, -1.000000000000e-02, -2.000000000000e-02
188, 4.000000000000e-02, -1.000000000000e-02, -2.000000000000e-02
189, 5.000000000000e-02, -1.000000000000e-02, -2.000000000000e-02
190, 6.000000000000e-02, -1.000000000000e-02, -2.000000000000e-02
191, 7.000000000000e-02, -1.000000000000e-02, -2.000000000000e-02
192, 8.000000000000e-02, -1.000000000000e-02, -2.000000000000e-02
193, 9.000000000000e-02, -1.000000000000e-02, -2.000000000000e-02
194, 1.000000000000e-01, -1.000000000000e-02, -2.000000000000e-02
195, 1.100000000000e-01, -1.000000000000e-02, -2.000000000000e-02
196, 1.200000000000e-01, -1.000000000000e-02, -2.000000000000e-02
197, 1.300000000000e-01, -1.000000000000e-02, -2.000000000000e-02
198, 1.400000000000e-01, -1.000000000000e-02, -2.000000000000e-02
199, 1.500000000000e-01, -1.000000000000e-02, -2.000000000000e-02
200, 1.600000000000e-01, -1.000000000000e-02, -2.000000000000e-02
201, 1.700000000000e-01, -1.000000000000e-02, -2.000000000000e-02
202, 1.800000000000e-01, -1.000000000000e-02, -2.000000000000e-02
203, 1.900000000000e-01, -1.000000000000e-02, -2.000000000000e-02
204, 2.000000000000e-01, -1.000000000000e-02, -2.000000000000e-02
205, 2.100000000000e-01, -1.000000000000e-02, -2.000000000000e-02
206, 2.200000000000e-01, -1.000000000000e-02, -2.000000000000e-02
207, 2.300000000000e-01, -1.000000000000e-02, -2.000000000000e-02
208, 2.400000000000e-01, -1.000000000000e-02, -2.000000000000e-02
209, 2.500000000000e-01, -1.000000000000e-02, -2.000000000000e-02
210, 2.600000000000e-01, -1.000000000000e-02, -2.000000000000e-02
211, 2.700000000000e-01, -1.000000000000e-02, -2.000000000000e-02
212, 2.800000000000e-01, -1.000000000000e-02, -2.000000000000e-02
213, 2.900000000000e-01, -1.000000000000e-02, -2.000000000000e-02
214, 3.000000000000e-01, -1.000000000000e-02, -2.000000000000e-02
215, 3.100000000000e-01, -1.000000000000e-02, -2.000000000000e-02
216, 3.200000000000e-01, -1.000000000000e-02, -2.000000000000e-02
217, 3.300000000000e-01, -1.000000000000e-02, -2.000000000000e-02
218, 3.400000000000e-01, -1.000000000000e-02, -2.000000000000e-02
219, 3.500000000000e-01, -1.000000000000e-02, -2.000000000000e-02
220, 3.600000000000e-01, -1.000000000000e-02, -2.000000000000e-02
221, 3.700000000000e-01, -1.000000000000e-02, -2.000000000000e-02
222, 3.800000000000e-01, -1.000000000000e-02, -2.000000000000e-02
223, 3.900000000000e-01, -1.000000000000e-02, -2.000000000000e-02
224, 4.000000000000e-01, -1.000000000000e-02, -2.000000000000e-02
225, 4.100000000000e-01, -1.000000000000e-02, -2.000000000000e-02
226, 4.200000000000e-01, -1.000000000000e-02, -2.000000000000e-02
227, 4.300000000000e-01, -1.000000000000e-02, -2.000000000000e-02
228, 4.400000000000e-01, -1.000000000000e-02, -2.000000000000e-02
229, 4.500000000000e-01, -1.000000000000e-02, -2.000000000000e-02
230, 4.600000000000e-01, -1.000000000000e-02, -2.000000000000e-02
231, 4.700000000000e-01, -1.000000000000e-02, -2.000000000000e-02
232, 4.800000000000e-01, -1.000000000000e-02, -2.000000000000e-02
233, 4.900000000000e-01, -1.000000000000e-02, -2.000000000000e-02
234, 5.000000000000e-01, -1.000000000000e-02, -2.000000000000e-02
235, 5.100000000000e-01, -1.000000000000e-02, -2.000000000000e-02
236, 5.200000000000e-01, -1.000000000000e-02, -2.000000000000e-02
237, 5.300000000000e-01, -1.000000000000e-02, -2.000000000000e-02
238, 5.400000000000e-01, -1.000000000000e-02, -2.000000000000e-02
239, 5.500000000000e-01, -1.000000000000e-02, -2.000000000000e-02
240, 5.600000000000e-01, -1.000000000000e-02, -2.000000000000e-02
241, 5.700000000000e-01, -1.000000000000e-02, -2.000000000000e-02
242, 5.800000000000e-01, -1.000000000000e-02, -2.000000000000e-02
243, 5.900000000000e-01, -1.000000000000e-02, -2.000000000000e-02
244, 6.000000000000e-01, -1.000000000000e-02, -2.000000000000e-02
245, 0.000000000000e+00, 0.000000000000e+00, -2.000000000000e-02
246, 1.000000000000e-02, 0.000000000000e+00, -2.000000000000e-02
247, 2.000000000000e-02, 0.000000000000e+00, -2.000000000000e-02
248, 3.000000000000e-02, 0.000000000000e+00, -2.000000000000e-02
249, 4.000000000000e-02, 0.000000000000e+00, -2.000000000000e-02
250, 5.000000000000e-02, 0.000000000000e+00, -2.000000000000e-02
251, 6.000000000000e-02, 0.000000000000e+00, -2.000000000000e-02
252, 7.000000000000e-02, 0.000000000000e+00, -2.000000000000e-02
253, 8.000000000000e-02, 0.000000000000e+00, -2.000000000000e-02
254, 9.000000000000e-02, 0.000000000000e+00, -2.000000000000e-02
255, 1.000000000000e-01, 0.000000000000e+00, -2.000000000000e-02
256, 1.100000000000e-01, 0.000000000000e+00, -2.000000000000e-02
257, 1.200000000000e-01, 0.000000000000e+00, -2.000000000000e-02
258, 1.300000000000e-01, 0.000000000000e+00, -2.000000000000e-02
259, 1.400000000000e-01, 0.000000000000e+00, -2.000000000000e-02
260, 1.500000000000e-01, 0.000000000000e+00, -2.000000000000e-02
261, 1.600000000000e-01, 0.000000000000e+00, -2.000000000000e-02
262, 1.700000000000e-01, 0.000000000000e+00, -2.000000000000e-02
263, 1.800000000000e-01, 0.000000000000e+00, -2.000000000000e-02
264, 1.900000000000e-01, 0.000000000000e+00, -2.000000000000e-02
265, 2.000000000000e-01, 0.000000000000e+00, -2.000000000000e-02
266, 2.100000000000e-01, 0.000000000000e+00, -2.000000000000e-02
267, 2.200000000000e-01, 0.000000000000e+00, -2.000000000000e-02
268, 2.300000000000e-01, 0.000000000000e+00, -2.000000000000e-02
269, 2.400000000000e-01, 0.000000000000e+00, -2.000000000000e-02
270, 2.500000000000e-01, 0.000000000000e+00, -2.000000000000e-02
271, 2.600000000000e-01, 0.000000000000e+00, -2.000000000000e-02
272, 2.700000000000e-01, 0.000000000000e+00, -2.000000000000e-02
273, 2.800000000000e-01, 0.000000000000e+00, -2.000000000000e-02
274, 2.900000000000e-01, 0.000000000000e+00, -2.000000000000e-02
275, 3.000000000000e-01, 0.000000000000e+00, -2.000000000000e-02
276, 3.100000000000e-01, 0.000000000000e+00, -2.000000000000e-02
277, 3.200000000000e-01, 0.000000000000e+00, -2.000000000000e-02
278, 3.300000000000e-01, 0.000000000000e+00, -2.000000000000e-02
279, 3.400000000000e-01, 0.000000000000e+00, -2.000000000000e-02
280, 3.500000000000e-01, 0.000000000000e+00, -2.000000000000e-02
281, 3.600000000000e-01, 0.000000000000e+00, -2.000000000000e-02
282, 3.700000000000e-01, 0.000000000000e+00, -2.000000000000e-02
283, 3.800000000000e-01, 0.000000000000e+00, -2.000000000000e-02
284, 3.900000000000e-01, 0.000000000000e+00, -2.000000000000e-02
285, 4.000000000000e-01, 0.000000000000e+00, -2.000000000000e-02
286, 4.100000000000e-01, 0.000000000000e+00, -2.000000000000e-02
287, 4.200000000000e-01, 0.000000000000e+00, -2.000000000000e-02
288, 4.300000000000e-01, 0.000000000000e+00, -2.000000000000e-02
289, 4.400000000000e-01, 0.000000000000e+00, -2.000000000000e-02
290, 4.500000000000e-01, 0.000000000000e+00, -2.000000000000e-02
291, 4.600000000000e-01, 0.000000000000e+00, -2.000000000000e-02
292, 4.700000000000e-01, 0.000000000000e+00, -2.000000000000e-02
293, 4.800000000000e-01, 0.000000000000e+00, -2.000000000000e-02
294, 4.900000000000e-01, 0.000000000000e+00, -2.000000000000e-02
295, 5.000000000000e-01, 0.000000000000e+00, -2.000000000000e-02
296, 5.100000000000e-01, 0.000000000000e+00, -2.000000000000e-02
297, 5.200000000000e-01, 0.000000000000e+00, -2.000000000000e-02
298, 5.300000000000e-01, 0.000000000000e+00, -2.000000000000e-02
299, 5.400000000000e-01, 0.000000000000e+00, -2.000000000000e-02
300, 5.500000000000e-01, 0.000000000000e+00, -2.000000000000e-02
301, 5.600000000000e-01, 0.000000000000e+00, -2.000000000000e-02
302, 5.700000000000e-01, 0.000000000000e+00, -2.000000000000e-02
303, 5.800000000000e-01, 0.000000000000e+00, -2.000000000000e-02
304, 5.900000000000e-01, 0.000000000000e+00, -2.000000000000e-02
305, 6.000000000000e-01, 0.000000000000e+00, -2.000000000000e-02
306, 0.000000000000e+00, 1.000000000000e-02, -2.000000000000e-02
307, 1.000000000000e-02, 1.000000000000e-02, -2.000000000000e-02
308, 2.000000000000e-02, 1.000000000000e-02, -2.000000000000e-02
309, 3.000000000000e-02, 1.000000000000e-02, -2.000000000000e-02
310, 4.000000000000e-02, 1.000000000000e-02, -2.000000000000e-02
311, 5.000000000000e-02, 1.000000000000e-02, -2.000000000000e-02
312, 6.000000000000e-02, 1.000000000000e-02, -2.000000000000e-02
313, 7.000000000000e-02, 1.000000000000e-02, -2.000000000000e-02
314, 8.000000000000e-02, 1.000000000000e-02, -2.000000000000e-02
315, 9.000000000000e-02, 1.000000000000e-02, -2.000000000000e-02
316, 1.000000000000e-01, 1.000000000000e-02, -2.000000000000e-02
317, 1.100000000000e-01, 1.000000000000e-02, -2.000000000000e-02
318, 1.200000000000e-01, 1.000000000000e-02, -2.000000000000e-02
319, 1.300000000000e-01, 1.000000000000e-02, -2.000000000000e-02
320, 1.400000000000e-01, 1.000000000000e-02, -2.000000000000e-02
321, 1.500000000000e-01, 1.000000000000e-02, -2.000000000000e-02
322, 1.600000000000e-01, 1.000000000000e-02, -2.000000000000e-02
323, 1.700000000000e-01, 1.000000000000e-02, -2.000000000000e-02
324, 1.800000000000e-01, 1.000000000000e-02, -2.000000000000e-02
325, 1.900000000000e-01, 1.000000000000e-02, -2.000000000000e-02
326, 2.000000000000e-01, 1.000000000000e-02, -2.000000000000e-02
327, 2.100000000000e-01, 1.000000000000e-02, -2.000000000000e-02
328, 2.200000000000e-01, 1.000000000000e-02, -2.000000000000e-02
329, 2.300000000000e-01, 1.000000000000e-02, -2.000000000000e-02
330, 2.400000000000e-01, 1.000000000000e-02, -2.000000000000e-02
331, 2.500000000000e-01, 1.000000000000e-02, -2.000000000000e-02
332, 2.600000000000e-01, 1.000000000000e-02, -2.000000000000e-02
333, 2.700000000000e-01, 1.000000000000e-02, -2.000000000000e-02
334, 2.800000000000e-01, 1.000000000000e-02, -2.000000000000e-02
335, 2.900000000000e-01, 1.000000000000e-02, -2.000000000000e-02
336, 3.000000000000e-01, 1.000000000000e-02, -2.000000000000e-02
337, 3.100000000000e-01, 1.000000000000e-02, -2.000000000000e-02
338, 3.200000000000e-01, 1.000000000000e-02, -2.000000000000e-02
339, 3.300000000000e-01, 1.000000000000e-02, -2.000000000000e-02
340, 3.400000000000e-01, 1.000000000000e-02, -2.000000000000e-02
341, 3.500000000000e-01, 1.000000000000e-02, -2.000000000000e-02
342, 3.600000000000e-01, 1.000000000000e-02, -2.000000000000e-02
343, 3.700000000000e-01, 1.000000000000e-02, -2.000000000000e-02
344, 3.800000000000e-01, 1.000000000000e-02, -2.000000000000e-02
345, 3.900000000000e-01, 1.000000000000e-02, -2.000000000000e-02
346, 4.000000000000e-01, 1.000000000000e-02, -2.000000000000e-02
347, 4.100000000000e-01, 1.000000000000e-02, -2.000000000000e-02
348, 4.200000000000e-01, 1.000000000000e-02, -2.000000000000e-02
349, 4.300000000000e-01, 1.000000000000e-02, -2.000000000000e-02
350, 4.400000000000e-01, 1.000000000000e-02, -2.000000000000e-02
351, 4.500000000000e-01, 1.000000000000e-02, -2.000000000000e-02
352, 4.600000000000e-01, 1.000000000000e-02, -2.000000000000e-02
353, 4.700000000000e-01, 1.000000000000e-02, -2.000000000000e-02
354, 4.800000000000e-01, 1.000000000000e-02, -2.000000000000e-02
355, 4.900000000000e-01, 1.000000000000e-02, -2.000000000000e-02
356, 5.000000000000e-01, 1.000000000000e-02, -2.000000000000e-02
357, 5.100000000000e-01, 1.000000000000e-02, -2.000000000000e-02
358, 5.200000000000e-01, 1.000000000000e-02, -2.000000000000e-02
359, 5.300000000000e-01, 1.000000000000e-02, -2.000000000000e-02
360, 5.400000000000e-01, 1.000000000000e-02, -2.000000000000e-02
361, 5.500000000000e-01, 1.000000000000e-02, -2.000000000000e-02
362, 5.600000000000e-01, 1.000000000000e-02, -2.000000000000e-02
363, 5.700000000000e-01, 1.000000000000e-02, -2.000000000000e-02
364, 5.800000000000e-01, 1.000000000000e-02, -2.000000000000e-02
365, 5.900000000000e-01, 1.000000000000e-02, -2.000000000000e-02
366, 6.000000000000e-01, 1.000000000000e-02, -2.000000000000e-02
367, 0.000000000000e+00, 2.000000000000e-02, -2.000000000000e-02
368, 1.000000000000e-02, 2.000000000000e-02, -2.000000000000e-02
369, 2.000000000000e-02, 2.000000000000e-02, -2.000000000000e-02
370, 3.000000000000e-02, 2.000000000000e-02, -2.000000000000e-02
371, 4.000000000000e-02, 2.000000000000e-02, -2.000000000000e-02
372, 5.000000000000e-02, 2.000000000000e-02, -2.000000000000e-02
373, 6.000000000000e-02, 2.000000000000e-02, -2.000000000000e-02
374, 7.000000000000e-02, 2.000000000000e-02, -2.000000000000e-02
375, 8.000000000000e-02, 2.000000000000e-02, -2.000000000000e-02
376, 9.000000000000e-02, 2.000000000000e-02, -2.000000000000e-02
377, 1.000000000000e-01, 2.000000000000e-02, -2.000000000000e-02
378, 1.100000000000e-01, 2.000000000000e-02, -2.000000000000e-02
379, 1.200000000000e-01, 2.000000000000e-02, -2.000000000000e-02
380, 1.300000000000e-01, 2.000000000000e-02, -2.000000000000e-02
381, 1.400000000000e-01, 2.000000000000e-02, -2.000000000000e-02
382, 1.500000000000e-01, 2.000000000000e-02, -2.000000000000e-02
383, 1.600000000000e-01, 2.000000000000e-02, -2.000000000000e-02
384, 1.700000000000e-01, 2.000000000000e-02, -2.000000000000e-02
385, 1.800000000000e-01, 2.000000000000e-02, -2.000000000000e-02
386, 1.900000000000e-01, 2.000000000000e-02, -2.000000000000e-02
387, 2.000000000000e-01, 2.000000000000e-02, -2.000000000000e-02
388, 2.100000000000e-01, 2.000000000000e-02, -2.000000000000e-02
389, 2.200000000000e-01, 2.000000000000e-02, -2.000000000000e-02
390, 2.300000000000e-01, 2.000000000000e-02, -2.000000000000e-02
391, 2.400000000000e-01, 2.000000000000e-02, -2.000000000000e-02
392, 2.500000000000e-01, 2.000000000000e-02, -2.000000000000e-02
393, 2.600000000000e-01, 2.000000000000e-02, -2.000000000000e-02
394, 2.700000000000e-01, 2.000000000000e-02, -2.000000000000e-02
395, 2.800000000000e-01, 2.000000000000e-02, -2.000000000000e-02
396, 2.900000000000e-01, 2.000000000000e-02, -2.000000000000e-02
397, 3.000000000000e-01, 2.000000000000e-02, -2.000000000000e-02
398, 3.100000000000e-01, 2.000000000000e-02, -2.000000000000e-02
399, 3.200000000000e-01, 2.000000000000e-02, -2.000000000000e-02
400, 3.300000000000e-01, 2.000000000000e-02, -2.000000000000e-02
401, 3.400000000000e-01, 2.000000000000e-02, -2.000000000000e-02
402, 3.500000000000e-01, 2.000000000000e-02, -2.000000000000e-02
403, 3.600000000000e-01, 2.000000000000e-02, -2.000000000000e-02
404, 3.700000000000e-01, 2.000000000000e-02, -2.000000000000e-02
405, 3.800000000000e-01, 2.000000000000e-02, -2.000000000000e-02
406, 3.900000000000e-01, 2.000000000000e-02, -2.000000000000e-02
407, 4.000000000000e-01, 2.000000000000e-02, -2.000000000000e-02
408, 4.100000000000e-01, 2.000000000000e-02, -2.000000000000e-02
409, 4.200000000000e-01, 2.000000000000e-02, -2.000000000000e-02
410, 4.300000000000e-01, 2.000000000000e-02, -2.000000000000e-02
411, 4.400000000000e-01, 2.000000000000e-02, -2.000000000000e-02
412, 4.500000000000e-01, 2.000000000000e-02, -2.000000000000e-02
413, 4.600000000000e-01, 2.000000000000e-02, -2.000000000000e-02
414, 4.700000000000e-01, 2.000000000000e-02, -2.000000000000e-02
415, 4.800000000000e-01, 2.000000000000e-02, -2.000000000000e-02
416, 4.900000000000e-01, 2.000000000000e-02, -2.000000000000e-02
417, 5.000000000000e-01, 2.000000000000e-02, -2.000000000000e-02
418, 5.100000000000e-01, 2.000000000000e-02, -2.000000000000e-02
419, 5.200000000000e-01, 2.000000000000e-02, -2.000000000000e-02
420, 5.300000000000e-01, 2.000000000000e-02, -2.000000000000e-02
421, 5.400000000000e-01, 2.000000000000e-02, -2.000000000000e-02
422, 5.500000000000e-01, 2.000000000000e-02, -2.000000000000e-02
423, 5.600000000000e-01, 2.000000000000e-02, -2.000000000000e-02
424, 5.700000000000e-01, 2.000000000000e-02, -2.000000000000e-02
425, 5.800000000000e-01, 2.000000000000e-02, -2.000000000000e-02
426, 5.900000000000e-01, 2.000000000000e-02, -2.000000000000e-02
427, 6.000000000000e-01, 2.000000000000e-02, -2.000000000000e-02
428, 0.000000000000e+00, 3.000000000000e-02, -2.000000000000e-02
429, 1.000000000000e-02, 3.000000000000e-02, -2.000000000000e-02
430, 2.000000000000e-02, 3.000000000000e-02, -2.000000000000e-02
431, 3.000000000000e-02, 3.000000000000e-02, -2.000000000000e-02
432, 4.000000000000e-02, 3.000000000000e-02, -2.000000000000e-02
433, 5.000000000000e-02, 3.000000000000e-02, -2.000000000000e-02
434, 6.000000000000e-02, 3.000000000000e-02, -2.000000000000e-02
435, 7.000000000000e-02, 3.000000000000e-02, -2.000000000000e-02
436, 8.000000000000e-02, 3.000000000000e-02, -2.000000000000e-02
437, 9.000000000000e-02, 3.000000000000e-02, -2.000000000000e-02
438, 1.000000000000e-01, 3.000000000000e-02, -2.000000000000e-02
439, 1.100000000000e-01, 3.000000000000e-02, -2.000000000000e-02
440, 1.200000000000e-01, 3.000000000000e-02, -2.000000000000e-02
441, 1.300000000000e-01, 3.000000000000e-02, -2.000000000000e-02
442, 1.400000000000e-01, 3.000000000000e-02, -2.000000000000e-02
443, 1.500000000000e-01, 3.000000000000e-02, -2.000000000000e-02
444, 1.600000000000e-01, 3.000000000000e-02, -2.000000000000e-02
445, 1.700000000000e-01, 3.000000000000e-02, -2.000000000000e-02
446, 1.800000000000e-01, 3.000000000000e-02, -2.000000000000e-02
447, 1.900000000000e-01, 3.000000000000e-02, -2.000000000000e-02
448, 2.000000000000e-01, 3.000000000000e-02, -2.000000000000e-02
449, 2.100000000000e-01, 3.000000000000e-02, -2.000000000000e-02
450, 2.200000000000e-01, 3.000000000000e-02, -2.000000000000e-02
451, 2.300000000000e-01, 3.000000000000e-02, -2.000000000000e-02
452, 2.400000000000e-01, 3.000000000000e-02, -2.000000000000e-02
453, 2.500000000000e-01, 3.000000000000e-02, -2.000000000000e-02
454, 2.600000000000e-01, 3.000000000000e-02, -2.000000000000e-02
455, 2.700000000000e-01, 3.000000000000e-02, -2.000000000000e-02
456, 2.800000000000e-01, 3.000000000000e-02, -2.000000000000e-02
457, 2.900000000000e-01, 3.000000000000e-02, -2.000000000000e-02
458, 3.000000000000e-01, 3.000000000000e-02, -2.000000000000e-02
459, 3.100000000000e-01, 3.000000000000e-02, -2.000000000000e-02
460, 3.200000000000e-01, 3.000000000000e-02, -2.000000000000e-02
461, 3.300000000000e-01, 3.000000000000e-02, -2.000000000000e-02
462, 3.400000000000e-01, 3.000000000000e-02, -2.000000000000e-02
463, 3.500000000000e-01, 3.000000000000e-02, -2.000000000000e-02
464, 3.600000000000e-01, 3.000000000000e-02, -2.000000000000e-02
465, 3.700000000000e-01, 3.000000000000e-02, -2.000000000000e-02
466, 3.800000000000e-01, 3.000000000000e-02, -2.000000000000e-02
467, 3.900000000000e-01, 3.000000000000e-02, -2.000000000000e-02
468, 4.000000000000e-01, 3.000000000000e-02, -2.000000000000e-02
469, 4.100000000000e-01, 3.000000000000e-02, -2.000000000000e-02
470, 4.200000000000e-01, 3.000000000000e-02, -2.000000000000e-02
471, 4.300000000000e-01, 3.000000000000e-02, -2.000000000000e-02
472, 4.400000000000e-01, 3.000000000000e-02, -2.000000000000e-02
473, 4.500000000000e-01, 3.000000000000e-02, -2.000000000000e-02
474, 4.600000000000e-01, 3.000000000000e-02, -2.000000000000e-02
475, 4.700000000000e-01, 3.000000000000e-02, -2.000000000000e-02
476, 4.800000000000e-01, 3.000000000000e-02, -2.000000000000e-02
477, 4.900000000000e-01, 3.000000000000e-02, -2.000000000000e-02
478, 5.000000000000e-01, 3.000000000000e-02, -2.000000000000e-02
479, 5.100000000000e-01, 3.000000000000e-02, -2.000000000000e-02
480, 5.200000000000e-01, 3.000000000000e-02, -2.000000000000e-02
481, 5.300000000000e-01, 3.000000000000e-02, -2.000000000000e-02
482, 5.400000000000e-01, 3.000000000000e-02, -2.000000000000e-02
483, 5.500000000000e-01, 3.000000000000e-02, -2.000000000000e-02
484, 5.600000000000e-01, 3.000000000000e-02, -2.000000000000e-02
485, 5.700000000000e-01, 3.000000000000e-02, -2.000000000000e-02
486, 5.800000000000e-01, 3.000000000000e-02, -2.000000000000e-02
487, 5.900000000000e-01, 3.000000000000e-02, -2.000000000000e-02
488, 6.000000000000e-01, 3.000000000000e-02, -2.000000000000e-02
489, 0.000000000000e+00, 4.000000000000e-02, -2.000000000000e-02
490, 1.000000000000e-02, 4.000000000000e-02, -2.000000000000e-02
491, 2.000000000000e-02, 4.000000000000e-02, -2.000000000000e-02
492, 3.000000000000e-02, 4.000000000000e-02, -2.000000000000e-02
493, 4.000000000000e-02, 4.000000000000e-02, -2.000000000000e-02
494, 5.000000000000e-02, 4.000000000000e-02, -2.000000000000e-02
495, 6.000000000000e-02, 4.000000000000e-02, -2.000000000000e-02
496, 7.000000000000e-02, 4.000000000000e-02, -2.000000000000e-02
497, 8.000000000000e-02, 4.000000000000e-02, -2.000000000000e-02
498, 9.000000000000e-02, 4.000000000000e-02, -2.000000000000e-02
499, 1.000000000000e-01, 4.000000000000e-02, -2.000000000000e-02
500, 1.100000000000e-01, 4.000000000000e-02, -2.000000000000e-02
501, 1.200000000000e-01, 4.000000000000e-02, -2.000000000000e-02
502, 1.300000000000e-01, 4.000000000000e-02, -2.000000000000e-02
503, 1.400000000000e-01, 4.000000000000e-02, -2.000000000000e-02
504, 1.500000000000e-01, 4.000000000000e-02, -2.000000000000e-02
505, 1.600000000000e-01, 4.000000000000e-02, -2.000000000000e-02
506, 1.700000000000e-01, 4.000000000000e-02, -2.000000000000e-02
507, 1.800000000000e-01, 4.000000000000e-02, -2.000000000000e-02
508, 1.900000000000e-01, 4.000000000000e-02, -2.000000000000e-02
509, 2.000000000000e-01, 4.000000000000e-02, -2.000000000000e-02
510, 2.100000000000e-01, 4.000000000000e-02, -2.000000000000e-02
511, 2.200000000000e-01, 4.000000000000e-02, -2.000000000000e-02
512, 2.300000000000e-01, 4.000000000000e-02, -2.000000000000e-02
513, 2.400000000000e-01, 4.000000000000e-02, -2.000000000000e-02
514, 2.500000000000e-01, 4.000000000000e-02, -2.000000000000e-02
515, 2.600000000000e-01, 4.000000000000e-02, -2.000000000000e-02
516, 2.700000000000e-01, 4.000000000000e-02, -2.000000000000e-02
517, 2.800000000000e-01, 4.000000000000e-02, -2.000000000000e-02
518, 2.900000000000e-01, 4.000000000000e-02, -2.000000000000e-02
519, 3.000000000000e-01, 4.000000000000e-02, -2.000000000000e-02
520, 3.100000000000e-01, 4.000000000000e-02, -2.000000000000e-02
521, 3.200000000000e-01, 4.000000000000e-02, -2.000000000000e-02
522, 3.300000000000e-01, 4.000000000000e-02, -2.000000000000e-02
523, 3.400000000000e-01, 4.000000000000e-02, -2.000000000000e-02
524, 3.500000000000e-01, 4.000000000000e-02, -2.000000000000e-02
525, 3.600000000000e-01, 4.000000000000e-02, -2.000000000000e-02
526, 3.700000000000e-01, 4.000000000000e-02, -2.000000000000e-02
527, 3.800000000000e-01, 4.000000000000e-02, -2.000000000000e-02
528, 3.900000000000e-01, 4.000000000000e-02, -2.000000000000e-02
529, 4.000000000000e-01, 4.000000000000e-02, -2.000000000000e-02
530, 4.100000000000e-01, 4.000000000000e-02, -2.000000000000e-02
531, 4.200000000000e-01, 4.000000000000e-02, -2.000000000000e-02
532, 4.300000000000e-01, 4.000000000000e-02, -2.000000000000e-02
533, 4.400000000000e-01, 4.000000000000e-02, -2.000000000000e-02
534, 4.500000000000e-01, 4.000000000000e-02, -2.000000000000e-02
535, 4.600000000000e-01, 4.000000000000e-02, -2.000000000000e-02
536, 4.700000000000e-01, 4.000000000000e-02, -2.000000000000e-02
537, 4.800000000000e-01, 4.000000000000e-02, -2.000000000000e-02
538, 4.900000000000e-01, 4.000000000000e-02, -2.000000000000e-02
539, 5.000000000000e-01, 4.000000000000e-02, -2.000000000000e-02
540, 5.100000000000e-01, 4.000000000000e-02, -2.000000000000e-02
541, 5.200000000000e-01, 4.000000000000e-02, -2.000000000000e-02
542, 5.300000000000e-01, 4.000000000000e-02, -2.000000000000e-02
543, 5.400000000000e-01, 4.000000000000e-02, -2.000000000000e-02
544, 5.500000000000e-01, 4.000000000000e-02, -2.000000000000e-02
545, 5.600000000000e-01, 4.000000000000e-02, -2.000000000000e-02
546, 5.700000000000e-01, 4.000000000000e-02, -2.000000000000e-02
547, 5.800000000000e-01, 4.000000000000e-02, -2.000000000000e-02
548, 5.900000000000e-01, 4.000000000000e-02, -2.000000000000e-02
549, 6.000000000000e-01, 4.000000000000e-02, -2.000000000000e-02
550, 0.000000000000e+00, -4.000000000000e-02, -1.000000000000e-02
551, 1.000000000000e-02, -4.000000000000e-02, -1.000000000000e-02
552, 2.000000000000e-02, -4.000000000000e-02, -1.000000000000e-02
553, 3.000000000000e-02, -4.000000000000e-02, -1.000000000000e-02
554, 4.000000000000e-02, -4.000000000000e-02, -1.000000000000e-02
555, 5.000000000000e-02, -4.000000000000e-02, -1.000000000000e-02
556, 6.000000000000e-02, -4.000000000000e-02, -1.000000000000e-02
557, 7.000000000000e-02, -4.000000000000e-02, -1.000000000000e-02
558, 8.000000000000e-02, -4.000000000000e-02, -1.000000000000e-02
559, 9.000000000000e-02, -4.000000000000e-02, -1.000000000000e-02
560, 1.000000000000e-01, -4.000000000000e-02, -1.000000000000e-02
561, 1.100000000000e-01, -4.000000000000e-02, -1.000000000000e-02
562, 1.200000000000e-01, -4.000000000000e-02, -1.000000000000e-02
563, 1.300000000000e-01, -4.000000000000e-02, -1.000000000000e-02
564, 1.400000000000e-01, -4.000000000000e-02, -1.000000000000e-02
565, 1.500000000000e-01, -4.000000000000e-02, -1.000000000000e-02
566, 1.600000000000e-01, -4.000000000000e-02, -1.000000000000e-02
567, 1.700000000000e-01, -4.000000000000e-02, -1.000000000000e-02
568, 1.800000000000e-01, -4.000000000000e-02, -1.000000000000e-02
569, 1.900000000000e-01, -4.000000000000e-02, -1.000000000000e-02
570, 2.000000000000e-01, -4.000000000000e-02, -1.000000000000e-02
571, 2.100000000000e-01, -4.000000000000e-02, -1.000000000000e-02
572, 2.200000000000e-01, -4.000000000000e-02, -1.000000000000e-02
573, 2.300000000000e-01, -4.000000000000e-02, -1.000000000000e-02
574, 2.400000000000e-01, -4.000000000000e-02, -1.000000000000e-02
575, 2.500000000000e-01, -4.000000000000e-02, -1.000000000000e-02
576, 2.600000000000e-01, -4.000000000000e-02, -1.000000000000e-02
577, 2.700000000000e-01, -4.000000000000e-02, -1.000000000000e-02
578, 2.800000000000e-01, -4.000000000000e-02, -1.000000000000e-02
579, 2.900000000000e-01, -4.000000000000e-02, -1.000000000000e-02
580, 3.000000000000e-01, -4.000000000000e-02, -1.000000000000e-02
581, 3.100000000000e-01, -4.000000000000e-02, -1.000000000000e-02
582, 3.200000000000e-01, -4.000000000000e-02, -1.000000000000e-02
583, 3.300000000000e-01, -4.000000000000e-02, -1.000000000000e-02
584, 3.400000000000e-01, -4.000000000000e-02, -1.000000000000e-02
585, 3.500000000000e-01, -4.000000000000e-02, -1.000000000000e-02
586, 3.600000000000e-01, -4.000000000000e-02, -1.000000000000e-02
587, 3.700000000000e-01, -4.000000000000e-02, -1.000000000000e-02
588, 3.800000000000e-01, -4.000000000000e-02, -1.000000000000e-02
589, 3.900000000000e-01, -4.000000000000e-02, -1.000000000000e-02
590, 4.000000000000e-01, -4.000000000000e-02, -1.000000000000e-02
591, 4.100000000000e-01, -4.000000000000e-02, -1.000000000000e-02
592, 4.200000000000e-01, -4.000000000000e-02, -1.000000000000e-02
593, 4.300000000000e-01, -4.000000000000e-02, -1.000000000000e-02
594, 4.400000000000e-01, -4.000000000000e-02, -1.000000000000e-02
595, 4.500000000000e-01, -4.000000000000e-02, -1.000000000000e-02
596, 4.600000000000e-01, -4.000000000000e-02, -1.000000000000e-02
597, 4.700000000000e-01, -4.000000000000e-02, -1.000000000000e-02
598, 4.800000000000e-01, -4.000000000000e-02, -1.000000000000e-02
599, 4.900000000000e-01, -4.000000000000e-02, -1.000000000000e-02
600, 5.000000000000e-01, -4.000000000000e-02, -1.000000000000e-02
601, 5.100000000000e-01, -4.000000000000e-02, -1.000000000000e-02
602, 5.200000000000e-01, -4.000000000000e-02, -1.000000000000e-02
603, 5.300000000000e-01, -4.000000000000e-02, -1.000000000000e-02
604, 5.400000000000e-01, -4.000000000000e-02, -1.000000000000e-02
605, 5.500000000000e-01, -4.000000000000e-02, -1.000000000000e-02
606, 5.600000000000e-01, -4.000000000000e-02, -1.000000000000e-02
607, 5.700000000000e-01, -4.000000000000e-02, -1.000000000000e-02
608, 5.800000000000e-01, -4.000000000000e-02, -1.000000000000e-02
609, 5.900000000000e-01, -4.000000000000e-02, -1.000000000000e-02
610, 6.000000000000e-01, -4.000000000000e-02, -1.000000000000e-02
611, 0.000000000000e+00, -3.000000000000e-02, -1.000000000000e-02
612, 1.000000000000e-02, -3.000000000000e-02, -1.000000000000e-02
613, 2.000000000000e-02, -3.000000000000e-02, -1.000000000000e-02
614, 3.000000000000e-02, -3.000000000000e-02, -1.000000000000e-02
615, 4.000000000000e-02, -3.000000000000e-02, -1.000000000000e-02
616, 5.000000000000e-02, -3.000000000000e-02, -1.000000000000e-02
617, 6.000000000000e-02, -3.000000000000e-02, -1.000000000000e-02
618, 7.000000000000e-02, -3.000000000000e-02, -1.000000000000e-02
619, 8.000000000000e-02, -3.000000000000e-02, -1.000000000000e-02
620, 9.000000000000e-02, -3.000000000000e-02, -1.000000000000e-02
621, 1.000000000000e-01, -3.000000000000e-02, -1.000000000000e-02
622, 1.100000000000e-01, -3.000000000000e-02, -1.000000000000e-02
623, 1.200000000000e-01, -3.000000000000e-02, -1.000000000000e-02
624, 1.300000000000e-01, -3.000000000000e-02, -1.000000000000e-02
625, 1.400000000000e-01, -3.000000000000e-02, -1.000000000000e-02
626, 1.500000000000e-01, -3.000000000000e-02, -1.000000000000e-02
627, 1.600000000000e-01, -3.000000000000e-02, -1.000000000000e-02
628, 1.700000000000e-01, -3.000000000000e-02, -1.000000000000e-02
629, 1.800000000000e-01, -3.000000000000e-02, -1.000000000000e-02
630, 1.900000000000e-01, -3.000000000000e-02, -1.000000000000e-02
631, 2.000000000000e-01, -3.000000000000e-02, -1.000000000000e-02
632, 2.100000000000e-01, -3.000000000000e-02, -1.000000000000e-02
633, 2.200000000000e-01, -3.000000000000e-02, -1.000000000000e-02
634, 2.300000000000e-01, -3.000000000000e-02, -1.000000000000e-02
635, 2.400000000000e-01, -3.000000000000e-02, -1.000000000000e-02
636, 2.500000000000e-01, -3.000000000000e-02, -1.000000000000e-02
637, 2.600000000000e-01, -3.000000000000e-02, -1.000000000000e-02
638, 2.700000000000e-01, -3.000000000000e-02, -1.000000000000e-02
639, 2.800000000000e-01, -3.000000000000e-02, -1.000000000000e-02
640, 2.900000000000e-01, -3.000000000000e-02, -1.000000000000e-02
641, 3.000000000000e-01, -3.000000000000e-02, -1.000000000000e-02
642, 3.100000000000e-01, -3.000000000000e-02, -1.000000000000e-02
643, 3.200000000000e-01, -3.000000000000e-02, -1.000000000000e-02
644, 3.300000000000e-01, -3.000000000000e-02, -1.000000000000e-02
645, 3.400000000000e-01, -3.000000000000e-02, -1.000000000000e-02
646, 3.500000000000e-01, -3.000000000000e-02, -1.000000000000e-02
647, 3.600000000000e-01, -3.000000000000e-02, -1.000000000000e-02
648, 3.700000000000e-01, -3.000000000000e-02, -1.000000000000e-02
649, 3.800000000000e-01, -3.000000000000e-02, -1.000000000000e-02
650, 3.900000000000e-01, -3.000000000000e-02, -1.000000000000e-02
651, 4.000000000000e-01, -3.000000000000e-02, -1.000000000000e-02
652, 4.100000000000e-01, -3.000000000000e-02, -1.000000000000e-02
653, 4.200000000000e-01, -3.000000000000e-02, -1.000000000000e-02
654, 4.300000000000e-01, -3.000000000000e-02, -1.000000000000e-02
655, 4.400000000000e-01, -3.000000000000e-02, -1.000000000000e-02
656, 4.500000000000e-01, -3.000000000000e-02, -1.000000000000e-02
657, 4.600000000000e-01, -3.000000000000e-02, -1.000000000000e-02
658, 4.700000000000e-01, -3.000000000000e-02, -1.000000000000e-02
659, 4.800000000000e-01, -3.000000000000e-02, -1.000000000000e-02
660, 4.900000000000e-01, -3.000000000000e-02, -1.000000000000e-02
661, 5.000000000000e-01, -3.000000000000e-02, -1.000000000000e-02
662, 5.100000000000e-01, -3.000000000000e-02, -1.000000000000e-02
663, 5.200000000000e-01, -3.000000000000e-02, -1.000000000000e-02
664, 5.300000000000e-01, -3.000000000000e-02, -1.000000000000e-02
665, 5.400000000000e-01, -3.000000000000e-02, -1.000000000000e-02
666, 5.500000000000e-01, -3.000000000000e-02, -1.000000000000e-02
667, 5.600000000000e-01, -3.000000000000e-02, -1.000000000000e-02
668, 5.700000000000e-01, -3.000000000000e-02, -1.000000000000e-02
669, 5.800000000000e-01, -3.000000000000e-02, -1.000000000000e-02
670, 5.900000000000e-01, -3.000000000000e-02, -1.000000000000e-02
671, 6.000000000000e-01, -3.000000000000e-02, -1.000000000000e-02
672, 0.000000000000e+00, -2.000000000000e-02, -1.000000000000e-02
673, 1.000000000000e-02, -2.000000000000e-02, -1.000000000000e-02
674, 2.000000000000e-02, -2.000000000000e-02, -1.000000000000e-02
675, 3.000000000000e-02, -2.000000000000e-02, -1.000000000000e-02
676, 4.000000000000e-02, -2.000000000000e-02, -1.000000000000e-02
677, 5.000000000000e-02, -2.000000000000e-02, -1.000000000000e-02
678, 6.000000000000e-02, -2.000000000000e-02, -1.000000000000e-02
679, 7.000000000000e-02, -2.000000000000e-02, -1.000000000000e-02
680, 8.000000000000e-02, -2.000000000000e-02, -1.000000000000e-02
681, 9.000000000000e-02, -2.000000000000e-02, -1.000000000000e-02
682, 1.000000000000e-01, -2.000000000000e-02, -1.000000000000e-02
683, 1.100000000000e-01, -2.000000000000e-02, -1.000000000000e-02
684, 1.200000000000e-01, -2.000000000000e-02, -1.000000000000e-02
685, 1.300000000000e-01, -2.000000000000e-02, -1.000000000000e-02
686, 1.400000000000e-01, -2.000000000000e-02, -1.000000000000e-02
687, 1.500000000000e-01, -2.000000000000e-02, -1.000000000000e-02
688, 1.600000000000e-01, -2.000000000000e-02, -1.000000000000e-02
689, 1.700000000000e-01, -2.000000000000e-02, -1.000000000000e-02
690, 1.800000000000e-01, -2.000000000000e-02, -1.000000000000e-02
691, 1.900000000000e-01, -2.000000000000e-02, -1.000000000000e-02
692, 2.000000000000e-01, -2.000000000000e-02, -1.000000000000e-02
693, 2.100000000000e-01, -2.000000000000e-02, -1.000000000000e-02
694, 2.200000000000e-01, -2.000000000000e-02, -1.000000000000e-02
695, 2.300000000000e-01, -2.000000000000e-02, -1.000000000000e-02
696, 2.400000000000e-01, -2.000000000000e-02, -1.000000000000e-02
697, 2.500000000000e-01, -2.000000000000e-02, -1.000000000000e-02
698, 2.600000000000e-01, -2.000000000000e-02, -1.000000000000e-02
699, 2.700000000000e-01, -2.000000000000e-02, -1.000000000000e-02
700, 2.800000000000e-01, -2.000000000000e-02, -1.000000000000e-02
701, 2.900000000000e-01, -2.000000000000e-02, -1.000000000000e-02
702, 3.000000000000e-01, -2.000000000000e-02, -1.000000000000e-02
703, 3.100000000000e-01, -2.000000000000e-02, -1.000000000000e-02
704, 3.200000000000e-01, -2.000000000000e-02, -1.000000000000e-02
705, 3.300000000000e-01, -2.000000000000e-02, -1.000000000000e-02
706, 3.400000000000e-01, -2.000000000000e-02, -1.000000000000e-02
707, 3.500000000000e-01, -2.000000000000e-02, -1.000000000000e-02
708, 3.600000000000e-01, -2.000000000000e-02, -1.000000000000e-02
709, 3.700000000000e-01, -2.000000000000e-02, -1.000000000000e-02
710, 3.800000000000e-01, -2.000000000000e-02, -1.000000000000e-02
711, 3.900000000000e-01, -2.000000000000e-02, -1.000000000000e-02
712, 4.000000000000e-01, -2.000000000000e-02, -1.000000000000e-02
713, 4.100000000000e-01, -2.000000000000e-02, -1.000000000000e-02
714, 4.200000000000e-01, -2.000000000000e-02, -1.000000000000e-02
715, 4.300000000000e-01, -2.000000000000e-02, -1.000000000000e-02
716, 4.400000000000e-01, -2.000000000000e-02, -1.000000000000e-02
717, 4.500000000000e-01, -2.000000000000e-02, -1.000000000000e-02
718, 4.600000000000e-01, -2.000000000000e-02, -1.000000000000e-02
719, 4.700000000000e-01, -2.000000000000e-02, -1.000000000000e-02
720, 4.800000000000e-01, -2.000000000000e-02, -1.000000000000e-02
721, 4.900000000000e-01, -2.000000000000e-02, -1.000000000000e-02
722, 5.000000000000e-01, -2.000000000000e-02, -1.000000000000e-02
723, 5.100000000000e-01, -2.000000000000e-02, -1.000000000000e-02
724, 5.200000000000e-01, -2.000000000000e-02, -1.000000000000e-02
725, 5.300000000000e-01, -2.000000000000e-02, -1.000000000000e-02
726, 5.400000000000e-01, -2.000000000000e-02, -1.000000000000e-02
727, 5.500000000000e-01, -2.000000000000e-02, -1.000000000000e-02
728, 5.600000000000e-01, -2.000000000000e-02, -1.000000000000e-02
729, 5.700000000000e-01, -2.000000000000e-02, -1.000000000000e-02
730, 5.800000000000e-01, -2.000000000000e-02, -1.000000000000e-02
731, 5.900000000000e-01, -2.000000000000e-02, -1.000000000000e-02
732, 6.000000000000e-01, -2.000000000000e-02, -1.000000000000e-02
733, 0.000000000000e+00, -1.000000000000e-02, -1.000000000000e-02
734, 1.000000000000e-02, -1.000000000000e-02, -1.000000000000e-02
735, 2.000000000000e-02, -1.000000000000e-02, -1.000000000000e-02
736, 3.000000000000e-02, -1.000000000000e-02, -1.000000000000e-02
737, 4.000000000000e-02, -1.000000000000e-02, -1.000000000000e-02
738, 5.000000000000e-02, -1.000000000000e-02, -1.000000000000e-02
739, 6.000000000000e-02, -1.000000000000e-02, -1.000000000000e-02
740, 7.000000000000e-02, -1.000000000000e-02, -1.000000000000e-02
741, 8.000000000000e-02, -1.000000000000e-02, -1.000000000000e-02
742, 9.000000000000e-02, -1.000000000000e-02, -1.000000000000e-02
743, 1.000000000000e-01, -1.000000000000e-02, -1.000000000000e-02
744, 1.100000000000e-01, -1.000000000000e-02, -1.000000000000e-02
745, 1.200000000000e-01, -1.000000000000e-02, -1.000000000000e-02
746, 1.300000000000e-01, -1.000000000000e-02, -1.000000000000e-02
747, 1.400000000000e-01, -1.000000000000e-02, -1.000000000000e-02
748, 1.500000000000e-01, -1.000000000000e-02, -1.000000000000e-02
749, 1.600000000000e-01, -1.000000000000e-02, -1.000000000000e-02
750, 1.700000000000e-01, -1.000000000000e-02, -1.000000000000e-02
751, 1.800000000000e-01, -1.000000000000e-02, -1.000000000000e-02
752, 1.900000000000e-01, -1.000000000000e-02, -1.000000000000e-02
753, 2.000000000000e-01, -1.000000000000e-02, -1.000000000000e-02
754, 2.100000000000e-01, -1.000000000000e-02, -1.000000000000e-02
755, 2.200000000000e-01, -1.000000000000e-02, -1.000000000000e-02
756, 2.300000000000e-01, -1.000000000000e-02, -1.000000000000e-02
757, 2.400000000000e-01, -1.000000000000e-02, -1.000000000000e-02
758, 2.500000000000e-01, -1.000000000000e-02, -1.000000000000e-02
759, 2.600000000000e-01, -1.000000000000e-02, -1.000000000000e-02
760, 2.700000000000e-01, -1.000000000000e-02, -1.000000000000e-02
761, 2.800000000000e-01, -1.000000000000e-02, -1.000000000000e-02
762, 2.900000000000e-01, -1.000000000000e-02, -1.000000000000e-02
763, 3.000000000000e-01, -1.000000000000e-02, -1.000000000000e-02
764, 3.100000000000e-01, -1.000000000000e-02, -1.000000000000e-02
765, 3.200000000000e-01, -1.000000000000e-02, -1.000000000000e-02
766, 3.300000000000e-01, -1.000000000000e-02, -1.000000000000e-02
767, 3.400000000000e-01, -1.000000000000e-02, -1.000000000000e-02
768, 3.500000000000e-01, -1.000000000000e-02, -1.000000000000e-02
769, 3.600000000000e-01, -1.000000000000e-02, -1.000000000000e-02
770, 3.700000000000e-01, -1.000000000000e-02, -1.000000000000e-02
771, 3.800000000000e-01, -1.000000000000e-02, -1.000000000000e-02
772, 3.900000000000e-01, -1.000000000000e-02, -1.000000000000e-02
773, 4.000000000000e-01, -1.000000000000e-02, -1.000000000000e-02
774, 4.100000000000e-01, -1.000000000000e-02, -1.000000000000e-02
775, 4.200000000000e-01, -1.000000000000e-02, -1.000000000000e-02
776, 4.300000000000e-01, -1.000000000000e-02, -1.000000000000e-02
777, 4.400000000000e-01, -1.000000000000e-02, -1.000000000000e-02
778, 4.500000000000e-01, -1.000000000000e-02, -1.000000000000e-02
779, 4.600000000000e-01, -1.000000000000e-02, -1.000000000000e-02
780, 4.700000000000e-01, -1.000000000000e-02, -1.000000000000e-02
781, 4.800000000000e-01, -1.000000000000e-02, -1.000000000000e-02
782, 4.900000000000e-01, -1.000000000000e-02, -1.000000000000e-02
783, 5.000000000000e-01, -1.000000000000e-02, -1.000000000000e-02
784, 5.100000000000e-01, -1.000000000000e-02, -1.000000000000e-02
785, 5.200000000000e-01, -1.000000000000e-02, -1.000000000000e-02
786, 5.300000000000e-01, -1.000000000000e-02, -1.000000000000e-02
787, 5.400000000000e-01, -1.000000000000e-02, -1.000000000000e-02
788, 5.500000000000e-01, -1.000000000000e-02, -1.000000000000e-02
789, 5.600000000000e-01, -1.000000000000e-02, -1.000000000000e-02
790, 5.700000000000e-01, -1.000000000000e-02, -1.000000000000e-02
791, 5.800000000000e-01, -1.000000000000e-02, -1.000000000000e-02
792, 5.900000000000e-01, -1.000000000000e-02, -1.000000000000e-02
793, 6.000000000000e-01, -1.000000000000e-02, -1.000000000000e-02
794, 0.000000000000e+00, 0.000000000000e+00, -1.000000000000e-02
795, 1.000000000000e-02, 0.000000000000e+00, -1.000000000000e-02
796, 2.000000000000e-02, 0.000000000000e+00, -1.000000000000e-02
797, 3.000000000000e-02, 0.000000000000e+00, -1.000000000000e-02
798, 4.000000000000e-02, 0.000000000000e+00, -1.000000000000e-02
799, 5.000000000000e-02, 0.000000000000e+00, -1.000000000000e-02
800, 6.000000000000e-02, 0.000000000000e+00, -1.000000000000e-02
801, 7.000000000000e-02, 0.000000000000e+00, -1.000000000000e-02
802, 8.000000000000e-02, 0.000000000000e+00, -1.000000000000e-02
803, 9.000000000000e-02, 0.000000000000e+00, -1.000000000000e-02
804, 1.000000000000e-01, 0.000000000000e+00, -1.000000000000e-02
805, 1.100000000000e-01, 0.000000000000e+00, -1.000000000000e-02
806, 1.200000000000e-01, 0.000000000000e+00, -1.000000000000e-02
807, 1.300000000000e-01, 0.000000000000e+00, -1.000000000000e-02
808, 1.400000000000e-01, 0.000000000000e+00, -1.000000000000e-02
809, 1.500000000000e-01, 0.000000000000e+00, -1.000000000000e-02
810, 1.600000000000e-01, 0.000000000000e+00, -1.000000000000e-02
811, 1.700000000000e-01, 0.000000000000e+00, -1.000000000000e-02
812, 1.800000000000e-01, 0.000000000000e+00, -1.000000000000e-02
813, 1.900000000000e-01, 0.000000000000e+00, -1.000000000000e-02
814, 2.000000000000e-01, 0.000000000000e+00, -1.000000000000e-02
815, 2.100000000000e-01, 0.000000000000e+00, -1.000000000000e-02
816, 2.200000000000e-01, 0.000000000000e+00, -1.000000000000e-02
817, 2.300000000000e-01, 0.000000000000e+00, -1.000000000000e-02
818, 2.400000000000e-01, 0.000000000000e+00, -1.000000000000e-02
819, 2.500000000000e-01, 0.000000000000e+00, -1.000000000000e-02
820, 2.600000000000e-01, 0.000000000000e+00, -1.000000000000e-02
821, 2.700000000000e-01, 0.000000000000e+00, -1.000000000000e-02
822, 2.800000000000e-01, 0.000000000000e+00, -1.000000000000e-02
823, 2.900000000000e-01, 0.000000000000e+00, -1.000000000000e-02
824, 3.000000000000e-01, 0.000000000000e+00, -1.000000000000e-02
825, 3.100000000000e-01, 0.000000000000e+00, -1.000000000000e-02
826, 3.200000000000e-01, 0.000000000000e+00, -1.000000000000e-02
827, 3.300000000000e-01, 0.000000000000e+00, -1.000000000000e-02
828, 3.400000000000e-01, 0.000000000000e+00, -1.000000000000e-02
829, 3.500000000000e-01, 0.000000000000e+00, -1.000000000000e-02
830, 3.600000000000e-01, 0.000000000000e+00, -1.000000000000e-02
831, 3.700000000000e-01, 0.000000000000e+00, -1.000000000000e-02
832, 3.800000000000e-01, 0.000000000000e+00, -1.000000000000e-02
833, 3.900000000000e-01, 0.000000000000e+00, -1.000000000000e-02
834, 4.000000000000e-01, 0.000000000000e+00, -1.000000000000e-02
835, 4.100000000000e-01, 0.000000000000e+00, -1.000000000000e-02
836, 4.200000000000e-01, 0.000000000000e+00, -1.000000000000e-02
837, 4.300000000000e-01, 0.000000000000e+00, -1.000000000000e-02
838, 4.400000000000e-01, 0.000000000000e+00, -1.000000000000e-02
839, 4.500000000000e-01, 0.000000000000e+00, -1.000000000000e-02
840, 4.600000000000e-01, 0.000000000000e+00, -1.000000000000e-02
841, 4.700000000000e-01, 0.000000000000e+00, -1.000000000000e-02
842, 4.800000000000e-01, 0.000000000000e+00, -1.000000000000e-02
843, 4.900000000000e-01, 0.000000000000e+00, -1.000000000000e-02
844, 5.000000000000e-01, 0.000000000000e+00, -1.000000000000e-02
845, 5.100000000000e-01, 0.000000000000e+00, -1.000000000000e-02
846, 5.200000000000e-01, 0.000000000000e+00, -1.000000000000e-02
847, 5.300000000000e-01, 0.000000000000e+00, -1.000000000000e-02
848, 5.400000000000e-01, 0.000000000000e+00, -1.000000000000e-02
849, 5.500000000000e-01, 0.000000000000e+00, -1.000000000000e-02
850, 5.600000000000e-01, 0.000000000000e+00, -1.000000000000e-02
851, 5.700000000000e-01, 0.000000000000e+00, -1.000000000000e-02
852, 5.800000000000e-01, 0.000000000000e+00, -1.000000000000e-02
853, 5.900000000000e-01, 0.000000000000e+00, -1.000000000000e-02
854, 6.000000000000e-01, 0.000000000000e+00, -1.000000000000e-02
855, 0.000000000000e+00, 1.000000000000e-02, -1.000000000000e-02
856, 1.000000000000e-02, 1.000000000000e-02, -1.000000000000e-02
857, 2.000000000000e-02, 1.000000000000e-02, -1.000000000000e-02
858, 3.000000000000e-02, 1.000000000000e-02, -1.000000000000e-02
859, 4.000000000000e-02, 1.000000000000e-02, -1.000000000000e-02
860, 5.000000000000e-02, 1.000000000000e-02, -1.000000000000e-02
861, 6.000000000000e-02, 1.000000000000e-02, -1.000000000000e-02
862, 7.000000000000e-02, 1.000000000000e-02, -1.000000000000e-02
863, 8.000000000000e-02, 1.000000000000e-02, -1.000000000000e-02
864, 9.000000000000e-02, 1.000000000000e-02, -1.000000000000e-02
865, 1.000000000000e-01, 1.000000000000e-02, -1.000000000000e-02
866, 1.100000000000e-01, 1.000000000000e-02, -1.000000000000e-02
867, 1.200000000000e-01, 1.000000000000e-02, -1.000000000000e-02
868, 1.300000000000e-01, 1.000000000000e-02, -1.000000000000e-02
869, 1.400000000000e-01, 1.000000000000e-02, -1.000000000000e-02
870, 1.500000000000e-01, 1.000000000000e-02, -1.000000000000e-02
871, 1.600000000000e-01, 1.000000000000e-02, -1.000000000000e-02
872, 1.700000000000e-01, 1.000000000000e-02, -1.000000000000e-02
873, 1.800000000000e-01, 1.000000000000e-02, -1.000000000000e-02
874, 1.900000000000e-01, 1.000000000000e-02, -1.000000000000e-02
875, 2.000000000000e-01, 1.000000000000e-02, -1.000000000000e-02
876, 2.100000000000e-01, 1.000000000000e-02, -1.000000000000e-02
877, 2.200000000000e-01, 1.000000000000e-02, -1.000000000000e-02
878, 2.300000000000e-01, 1.000000000000e-02, -1.000000000000e-02
879, 2.400000000000e-01, 1.000000000000e-02, -1.000000000000e-02
880, 2.500000000000e-01, 1.000000000000e-02, -1.000000000000e-02
881, 2.600000000000e-01, 1.000000000000e-02, -1.000000000000e-02
882, 2.700000000000e-01, 1.000000000000e-02, -1.000000000000e-02
883, 2.800000000000e-01, 1.000000000000e-02, -1.000000000000e-02
884, 2.900000000000e-01, 1.000000000000e-02, -1.000000000000e-02
885, 3.000000000000e-01, 1.000000000000e-02, -1.000000000000e-02
886, 3.100000000000e-01, 1.000000000000e-02, -1.000000000000e-02
887, 3.200000000000e-01, 1.000000000000e-02, -1.000000000000e-02
888, 3.300000000000e-01, 1.000000000000e-02, -1.000000000000e-02
889, 3.400000000000e-01, 1.000000000000e-02, -1.000000000000e-02
890, 3.500000000000e-01, 1.000000000000e-02, -1.000000000000e-02
891, 3.600000000000e-01, 1.000000000000e-02, -1.000000000000e-02
892, 3.700000000000e-01, 1.000000000000e-02, -1.000000000000e-02
893, 3.800000000000e-01, 1.000000000000e-02, -1.000000000000e-02
894, 3.900000000000e-01, 1.000000000000e-02, -1.000000000000e-02
895, 4.000000000000e-01, 1.000000000000e-02, -1.000000000000e-02
896, 4.100000000000e-01, 1.000000000000e-02, -1.000000000000e-02
897, 4.200000000000e-01, 1.000000000000e-02, -1.000000000000e-02
898, 4.300000000000e-01, 1.000000000000e-02, -1.000000000000e-02
899, 4.400000000000e-01, 1.000000000000e-02, -1.000000000000e-02
900, 4.500000000000e-01, 1.000000000000e-02, -1.000000000000e-02
901, 4.600000000000e-01, 1.000000000000e-02, -1.000000000000e-02
902, 4.700000000000e-01, 1.000000000000e-02, -1.000000000000e-02
903, 4.800000000000e-01, 1.000000000000e-02, -1.000000000000e-02
904, 4.900000000000e-01, 1.000000000000e-02, -1.000000000000e-02
905, 5.000000000000e-01, 1.000000000000e-02, -1.000000000000e-02
906, 5.100000000000e-01, 1.000000000000e-02, -1.000000000000e-02
907, 5.200000000000e-01, 1.000000000000e-02, -1.000000000000e-02
908, 5.300000000000e-01, 1.000000000000e-02, -1.000000000000e-02
909, 5.400000000000e-01, 1.000000000000e-02, -1.000000000000e-02
910, 5.500000000000e-01, 1.000000000000e-02, -1.000000000000e-02
911, 5.600000000000e-01, 1.000000000000e-02, -1.000000000000e-02
912, 5.700000000000e-01, 1.000000000000e-02, -1.000000000000e-02
913, 5.800000000000e-01, 1.000000000000e-02, -1.000000000000e-02
914, 5.900000000000e-01, 1.000000000000e-02, -1.000000000000e-02
915, 6.000000000000e-01, 1.000000000000e-02, -1.000000000000e-02
916, 0.000000000000e+00, 2.000000000000e-02, -1.000000000000e-02
917, 1.000000000000e-02, 2.000000000000e-02, -1.000000000000e-02
918, 2.000000000000e-02, 2.000000000000e-02, -1.000000000000e-02
919, 3.000000000000e-02, 2.000000000000e-02, -1.000000000000e-02
920, 4.000000000000e-02, 2.000000000000e-02, -1.000000000000e-02
921, 5.000000000000e-02, 2.000000000000e-02, -1.000000000000e-02
922, 6.000000000000e-02, 2.000000000000e-02, -1.000000000000e-02
923, 7.000000000000e-02, 2.000000000000e-02, -1.000000000000e-02
924, 8.000000000000e-02, 2.000000000000e-02, -1.000000000000e-02
925, 9.000000000000e-02, 2.000000000000e-02, -1.000000000000e-02
926, 1.000000000000e-01, 2.000000000000e-02, -1.000000000000e-02
927, 1.100000000000e-01, 2.000000000000e-02, -1.000000000000e-02
928, 1.200000000000e-01, 2.000000000000e-02, -1.000000000000e-02
929, 1.300000000000e-01, 2.000000000000e-02, -1.000000000000e-02
930, 1.400000000000e-01, 2.000000000000e-02, -1.000000000000e-02
931, 1.500000000000e-01, 2.000000000000e-02, -1.000000000000e-02
932, 1.600000000000e-01, 2.000000000000e-02, -1.000000000000e-02
933, 1.700000000000e-01, 2.000000000000e-02, -1.000000000000e-02
934, 1.800000000000e-01, 2.000000000000e-02, -1.000000000000e-02
935, 1.900000000000e-01, 2.000000000000e-02, -1.000000000000e-02
936, 2.000000000000e-01, 2.000000000000e-02, -1.000000000000e-02
937, 2.100000000000e-01, 2.000000000000e-02, -1.000000000000e-02
938, 2.200000000000e-01, 2.000000000000e-02, -1.000000000000e-02
939, 2.300000000000e-01, 2.000000000000e-02, -1.000000000000e-02
940, 2.400000000000e-01, 2.000000000000e-02, -1.000000000000e-02
941, 2.500000000000e-01, 2.000000000000e-02, -1.000000000000e-02
942, 2.600000000000e-01, 2.000000000000e-02, -1.000000000000e-02
943, 2.700000000000e-01, 2.000000000000e-02, -1.000000000000e-02
944, 2.800000000000e-01, 2.000000000000e-02, -1.000000000000e-02
945, 2.900000000000e-01, 2.000000000000e-02, -1.000000000000e-02
946, 3.000000000000e-01, 2.000000000000e-02, -1.000000000000e-02
947, 3.100000000000e-01, 2.000000000000e-02, -1.000000000000e-02
948, 3.200000000000e-01, 2.000000000000e-02, -1.000000000000e-02
949, 3.300000000000e-01, 2.000000000000e-02, -1.000000000000e-02
950, 3.400000000000e-01, 2.000000000000e-02, -1.000000000000e-02
951, 3.500000000000e-01, 2.000000000000e-02, -1.000000000000e-02
952, 3.600000000000e-01, 2.000000000000e-02, -1.000000000000e-02
953, 3.700000000000e-01, 2.000000000000e-02, -1.000000000000e-02
954, 3.800000000000e-01, 2.000000000000e-02, -1.000000000000e-02
955, 3.900000000000e-01, 2.000000000000e-02, -1.000000000000e-02
956, 4.000000000000e-01, 2.000000000000e-02, -1.000000000000e-02
957, 4.100000000000e-01, 2.000000000000e-02, -1.000000000000e-02
958, 4.200000000000e-01, 2.000000000000e-02, -1.000000000000e-02
959, 4.300000000000e-01, 2.000000000000e-02, -1.000000000000e-02
960, 4.400000000000e-01, 2.000000000000e-02, -1.000000000000e-02
961, 4.500000000000e-01, 2.000000000000e-02, -1.000000000000e-02
962, 4.600000000000e-01, 2.000000000000e-02, -1.000000000000e-02
963, 4.700000000000e-01, 2.000000000000e-02, -1.000000000000e-02
964, 4.800000000000e-01, 2.000000000000e-02, -1.000000000000e-02
965, 4.900000000000e-01, 2.000000000000e-02, -1.000000000000e-02
966, 5.000000000000e-01, 2.000000000000e-02, -1.000000000000e-02
967, 5.100000000000e-01, 2.000000000000e-02, -1.000000000000e-02
968, 5.200000000000e-01, 2.000000000000e-02, -1.000000000000e-02
969, 5.300000000000e-01, 2.000000000000e-02, -1.000000000000e-02
970, 5.400000000000e-01, 2.000000000000e-02, -1.000000000000e-02
971, 5.500000000000e-01, 2.000000000000e-02, -1.000000000000e-02
972, 5.600000000000e-01, 2.000000000000e-02, -1.000000000000e-02
973, 5.700000000000e-01, 2.000000000000e-02, -1.000000000000e-02
974, 5.800000000000e-01, 2.000000000000e-02, -1.000000000000e-02
975, 5.900000000000e-01, 2.000000000000e-02, -1.000000000000e-02
976, 6.000000000000e-01, 2.000000000000e-02, -1.000000000000e-02
977, 0.000000000000e+00, 3.000000000000e-02, -1.000000000000e-02
978, 1.000000000000e-02, 3.000000000000e-02, -1.000000000000e-02
979, 2.000000000000e-02, 3.000000000000e-02, -1.000000000000e-02
980, 3.000000000000e-02, 3.000000000000e-02, -1.000000000000e-02
981, 4.000000000000e-02, 3.000000000000e-02, -1.000000000000e-02
982, 5.000000000000e-02, 3.000000000000e-02, -1.000000000000e-02
983, 6.000000000000e-02, 3.000000000000e-02, -1.000000000000e-02
984, 7.000000000000e-02, 3.000000000000e-02, -1.000000000000e-02
985, 8.000000000000e-02, 3.000000000000e-02, -1.000000000000e-02
986, 9.000000000000e-02, 3.000000000000e-02, -1.000000000000e-02
987, 1.000000000000e-01, 3.000000000000e-02, -1.000000000000e-02
988, 1.100000000000e-01, 3.000000000000e-02, -1.000000000000e-02
989, 1.200000000000e-01, 3.000000000000e-02, -1.000000000000e-02
990, 1.300000000000e-01, 3.000000000000e-02, -1.000000000000e-02
991, 1.400000000000e-01, 3.000000000000e-02, -1.000000000000e-02
992, 1.500000000000e-01, 3.000000000000e-02, -1.000000000000e-02
993, 1.600000000000e-01, 3.000000000000e-02, -1.000000000000e-02
994, 1.700000000000e-01, 3.000000000000e-02, -1.000000000000e-02
995, 1.800000000000e-01, 3.000000000000e-02, -1.000000000000e-02
996, 1.900000000000e-01, 3.000000000000e-02, -1.000000000000e-02
997, 2.000000000000e-01, 3.000000000000e-02, -1.000000000000e-02
998, 2.100000000000e-01, 3.000000000000e-02, -1.000000000000e-02
999, 2.200000000000e-01, 3.000000000000e-02, -1.000000000000e-02
1000, 2.300000000000e-01, 3.000000000000e-02, -1.000000000000e-02
1001, 2.400000000000e-01, 3.000000000000e-02, -1.000000000000e-02
1002, 2.500000000000e-01, 3.000000000000e-02, -1.000000000000e-02
1003, 2.600000000000e-01, 3.000000000000e-02, -1.000000000000e-02
1004, 2.700000000000e-01, 3.000000000000e-02, -1.000000000000e-02
1005, 2.800000000000e-01, 3.000000000000e-02, -1.000000000000e-02
1006, 2.900000000000e-01, 3.000000000000e-02, -1.000000000000e-02
1007, 3.000000000000e-01, 3.000000000000e-02, -1.000000000000e-02
1008, 3.100000000000e-01, 3.000000000000e-02, -1.000000000000e-02
1009, 3.200000000000e-01, 3.000000000000e-02, -1.000000000000e-02
1010, 3.300000000000e-01, 3.000000000000e-02, -1.000000000000e-02
1011, 3.400000000000e-01, 3.000000000000e-02, -1.000000000000e-02
1012, 3.500000000000e-01, 3.000000000000e-02, -1.000000000000e-02
1013, 3.600000000000e-01, 3.000000000000e-02, -1.000000000000e-02
1014, 3.700000000000e-01, 3.000000000000e-02, -1.000000000000e-02
1015, 3.800000000000e-01, 3.000000000000e-02, -1.000000000000e-02
1016, 3.900000000000e-01, 3.000000000000e-02, -1.000000000000e-02
1017, 4.000000000000e-01, 3.000000000000e-02, -1.000000000000e-02
1018, 4.100000000000e-01, 3.000000000000e-02, -1.000000000000e-02
1019, 4.200000000000e-01, 3.000000000000e-02, -1.000000000000e-02
1020, 4.300000000000e-01, 3.000000000000e-02, -1.000000000000e-02
1021, 4.400000000000e-01, 3.000000000000e-02, -1.000000000000e-02
1022, 4.500000000000e-01, 3.000000000000e-02, -1.000000000000e-02
1023, 4.600000000000e-01, 3.000000000000e-02, -1.000000000000e-02
1024, 4.700000000000e-01, 3.000000000000e-02, -1.000000000000e-02
1025, 4.800000000000e-01, 3.000000000000e-02, -1.000000000000e-02
1026, 4.900000000000e-01, 3.000000000000e-02, -1.000000000000e-02
1027, 5.000000000000e-01, 3.000000000000e-02, -1.000000000000e-02
1028, 5.100000000000e-01, 3.000000000000e-02, -1.000000000000e-02
1029, 5.200000000000e-01, 3.000000000000e-02, -1.000000000000e-02
1030, 5.300000000000e-01, 3.000000000000e-02, -1.000000000000e-02
1031, 5.400000000000e-01, 3.000000000000e-02, -1.000000000000e-02
1032, 5.500000000000e-01, 3.000000000000e-02, -1.000000000000e-02
1033, 5.600000000000e-01, 3.000000000000e-02, -1.000000000000e-02
1034, 5.700000000000e-01, 3.000000000000e-02, -1.000000000000e-02
1035, 5.800000000000e-01, 3.000000000000e-02, -1.000000000000e-02
1036, 5.900000000000e-01, 3.000000000000e-02, -1.000000000000e-02
1037, 6.000000000000e-01, 3.000000000000e-02, -1.000000000000e-02
1038, 0.000000000000e+00, 4.000000000000e-02, -1.000000000000e-02
1039, 1.000000000000e-02, 4.000000000000e-02, -1.000000000000e-02
1040, 2.000000000000e-02, 4.000000000000e-02, -1.000000000000e-02
1041, 3.000000000000e-02, 4.000000000000e-02, -1.000000000000e-02
1042, 4.000000000000e-02, 4.000000000000e-02, -1.000000000000e-02
1043, 5.000000000000e-02, 4.000000000000e-02, -1.000000000000e-02
1044, 6.000000000000e-02, 4.000000000000e-02, -1.000000000000e-02
1045, 7.000000000000e-02, 4.000000000000e-02, -1.000000000000e-02
1046, 8.000000000000e-02, 4.000000000000e-02, -1.000000000000e-02
1047, 9.000000000000e-02, 4.000000000000e-02, -1.000000000000e-02
1048, 1.000000000000e-01, 4.000000000000e-02, -1.000000000000e-02
1049, 1.100000000000e-01, 4.000000000000e-02, -1.000000000000e-02
1050, 1.200000000000e-01, 4.000000000000e-02, -1.000000000000e-02
1051, 1.300000000000e-01, 4.000000000000e-02, -1.000000000000e-02
1052, 1.400000000000e-01, 4.000000000000e-02, -1.000000000000e-02
1053, 1.500000000000e-01, 4.000000000000e-02, -1.000000000000e-02
1054, 1.600000000000e-01, 4.000000000000e-02, -1.000000000000e-02
1055, 1.700000000000e-01, 4.000000000000e-02, -1.000000000000e-02
1056, 1.800000000000e-01, 4.000000000000e-02, -1.000000000000e-02
1057, 1.900000000000e-01, 4.000000000000e-02, -1.000000000000e-02
1058, 2.000000000000e-01, 4.000000000000e-02, -1.000000000000e-02
1059, 2.100000000000e-01, 4.000000000000e-02, -1.000000000000e-02
1060, 2.200000000000e-01, 4.000000000000e-02, -1.000000000000e-02
1061, 2.300000000000e-01, 4.000000000000e-02, -1.000000000000e-02
1062, 2.400000000000e-01, 4.000000000000e-02, -1.000000000000e-02
1063, 2.500000000000e-01, 4.000000000000e-02, -1.000000000000e-02
1064, 2.600000000000e-01, 4.000000000000e-02, -1.000000000000e-02
1065, 2.700000000000e-01, 4.000000000000e-02, -1.000000000000e-02
1066, 2.800000000000e-01, 4.000000000000e-02, -1.000000000000e-02
1067, 2.900000000000e-01, 4.000000000000e-02, -1.000000000000e-02
1068, 3.000000000000e-01, 4.000000000000e-02, -1.000000000000e-02
1069, 3.100000000000e-01, 4.000000000000e-02, -1.000000000000e-02
1070, 3.200000000000e-01, 4.000000000000e-02, -1.000000000000e-02
1071, 3.300000000000e-01, 4.000000000000e-02, -1.000000000000e-02
1072, 3.400000000000e-01, 4.000000000000e-02, -1.000000000000e-02
1073, 3.500000000000e-01, 4.000000000000e-02, -1.000000000000e-02
1074, 3.600000000000e-01, 4.000000000000e-02, -1.000000000000e-02
1075, 3.700000000000e-01, 4.000000000000e-02, -1.000000000000e-02
1076, 3.800000000000e-01, 4.000000000000e-02, -1.000000000000e-02
1077, 3.900000000000e-01, 4.000000000000e-02, -1.000000000000e-02
1078, 4.000000000000e-01, 4.000000000000e-02, -1.000000000000e-02
1079, 4.100000000000e-01, 4.000000000000e-02, -1.000000000000e-02
1080, 4.200000000000e-01, 4.000000000000e-02, -1.000000000000e-02
1081, 4.300000000000e-01, 4.000000000000e-02, -1.000000000000e-02
1082, 4.400000000000e-01, 4.000000000000e-02, -1.000000000000e-02
1083, 4.500000000000e-01, 4.000000000000e-02, -1.000000000000e-02
1084, 4.600000000000e-01, 4.000000000000e-02, -1.000000000000e-02
1085, 4.700000000000e-01, 4.000000000000e-02, -1.000000000000e-02
1086, 4.800000000000e-01, 4.000000000000e-02, -1.000000000000e-02
1087, 4.900000000000e-01, 4.000000000000e-02, -1.000000000000e-02
1088, 5.000000000000e-01, 4.000000000000e-02, -1.000000000000e-02
1089, 5.100000000000e-01, 4.000000000000e-02, -1.000000000000e-02
1090, 5.200000000000e-01, 4.000000000000e-02, -1.000000000000e-02
1091, 5.300000000000e-01, 4.000000000000e-02, -1.000000000000e-02
1092, 5.400000000000e-01, 4.000000000000e-02, -1.000000000000e-02
1093, 5.500000000000e-01, 4.000000000000e-02, -1.000000000000e-02
1094, 5.600000000000e-01, 4.000000000000e-02, -1.000000000000e-02
1095, 5.700000000000e-01, 4.000000000000e-02, -1.000000000000e-02
1096, 5.800000000000e-01, 4.000000000000e-02, -1.000000000000e-02
1097, 5.900000000000e-01, 4.000000000000e-02, -1.000000000000e-02
1098, 6.000000000000e-01, 4.000000000000e-02, -1.000000000000e-02
1099, 0.000000000000e+00, -4.000000000000e-02, 0.000000000000e+00
1100, 1.000000000000e-02, -4.000000000000e-02, 0.000000000000e+00
1101, 2.000000000000e-02, -4.000000000000e-02, 0.000000000000e+00
1102, 3.000000000000e-02, -4.000000000000e-02, 0.000000000000e+00
1103, 4.000000000000e-02, -4.000000000000e-02, 0.000000000000e+00
1104, 5.000000000000e-02, -4.000000000000e-02, 0.000000000000e+00
1105, 6.000000000000e-02, -4.000000000000e-02, 0.000000000000e+00
1106, 7.000000000000e-02, -4.000000000000e-02, 0.000000000000e+00
1107, 8.000000000000e-02, -4.000000000000e-02, 0.000000000000e+00
1108, 9.000000000000e-02, -4.000000000000e-02, 0.000000000000e+00
1109, 1.000000000000e-01, -4.000000000000e-02, 0.000000000000e+00
1110, 1.100000000000e-01, -4.000000000000e-02, 0.000000000000e+00
1111, 1.200000000000e-01, -4.000000000000e-02, 0.000000000000e+00
1112, 1.300000000000e-01, -4.000000000000e-02, 0.000000000000e+00
1113, 1.400000000000e-01, -4.000000000000e-02, 0.000000000000e+00
1114, 1.500000000000e-01, -4.000000000000e-02, 0.000000000000e+00
1115, 1.600000000000e-01, -4.000000000000e-02, 0.000000000000e+00
1116, 1.700000000000e-01, -4.000000000000e-02, 0.000000000000e+00
1117, 1.800000000000e-01, -4.000000000000e-02, 0.000000000000e+00
1118, 1.900000000000e-01, -4.000000000000e-02, 0.000000000000e+00
1119, 2.000000000000e-01, -4.000000000000e-02, 0.000000000000e+00
1120, 2.100000000000e-01, -4.000000000000e-02, 0.000000000000e+00
1121, 2.200000000000e-01, -4.000000000000e-02, 0.000000000000e+00
1122, 2.300000000000e-01, -4.000000000000e-02, 0.000000000000e+00
1123, 2.400000000000e-01, -4.000000000000e-02, 0.000000000000e+00
1124, 2.500000000000e-01, -4.000000000000e-02, 0.000000000000e+00
1125, 2.600000000000e-01, -4.000000000000e-02, 0.000000000000e+00
1126, 2.700000000000e-01, -4.000000000000e-02, 0.000000000000e+00
1127, 2.800000000000e-01, -4.000000000000e-02, 0.000000000000e+00
1128, 2.900000000000e-01, -4.000000000000e-02, 0.000000000000e+00
1129, 3.000000000000e-01, -4.000000000000e-02, 0.000000000000e+00
1130, 3.100000000000e-01, -4.000000000000e-02, 0.000000000000e+00
1131, 3.200000000000e-01, -4.000000000000e-02, 0.000000000000e+00
1132, 3.300000000000e-01, -4.000000000000e-02, 0.000000000000e+00
1133, 3.400000000000e-01, -4.000000000000e-02, 0.000000000000e+00
1134, 3.500000000000e-01, -4.000000000000e-02, 0.000000000000e+00
1135, 3.600000000000e-01, -4.000000000000e-02, 0.000000000000e+00
1136, 3.700000000000e-01, -4.000000000000e-02, 0.000000000000e+00
1137, 3.800000000000e-01, -4.000000000000e-02, 0.000000000000e+00
1138, 3.900000000000e-01, -4.000000000000e-02, 0.000000000000e+00
1139, 4.000000000000e-01, -4.000000000000e-02, 0.000000000000e+00
1140, 4.100000000000e-01, -4.000000000000e-02, 0.000000000000e+00
1141, 4.200000000000e-01, -4.000000000000e-02, 0.000000000000e+00
1142, 4.300000000000e-01, -4.000000000000e-02, 0.000000000000e+00
1143, 4.400000000000e-01, -4.000000000000e-02, 0.000000000000e+00
1144, 4.500000000000e-01, -4.000000000000e-02, 0.000000000000e+00
1145, 4.600000000000e-01, -4.000000000000e-02, 0.000000000000e+00
1146, 4.700000000000e-01, -4.000000000000e-02, 0.000000000000e+00
1147, 4.800000000000e-01, -4.000000000000e-02, 0.000000000000e+00
1148, 4.900000000000e-01, -4.000000000000e-02, 0.000000000000e+00
1149, 5.000000000000e-01, -4.000000000000e-02, 0.000000000000e+00
1150, 5.100000000000e-01, -4.000000000000e-02, 0.000000000000e+00
1151, 5.200000000000e-01, -4.000000000000e-02, 0.000000000000e+00
1152, 5.300000000000e-01, -4.000000000000e-02, 0.000000000000e+00
1153, 5.400000000000e-01, -4.000000000000e-02, 0.000000000000e+00
1154, 5.500000000000e-01, -4.000000000000e-02, 0.000000000000e+00
1155, 5.600000000000e-01, -4.000000000000e-02, 0.000000000000e+00
1156, 5.700000000000e-01, -4.000000000000e-02, 0.000000000000e+00
1157, 5.800000000000e-01, -4.000000000000e-02, 0.000000000000e+00
1158, 5.900000000000e-01, -4.000000000000e-02, 0.000000000000e+00
1159, 6.000000000000e-01, -4.000000000000e-02, 0.000000000000e+00
1160, 0.000000000000e+00, -3.000000000000e-02, 0.000000000000e+00
1161, 1.000000000000e-02, -3.000000000000e-02, 0.000000000000e+00
1162, 2.000000000000e-02, -3.000000000000e-02, 0.000000000000e+00
1163, 3.000000000000e-02, -3.000000000000e-02, 0.000000000000e+00
1164, 4.000000000000e-02, -3.000000000000e-02, 0.000000000000e+00
1165, 5.000000000000e-02, -3.000000000000e-02, 0.000000000000e+00
1166, 6.000000000000e-02, -3.000000000000e-02, 0.000000000000e+00
1167, 7.000000000000e-02, -3.000000000000e-02, 0.000000000000e+00
1168, 8.000000000000e-02, -3.000000000000e-02, 0.000000000000e+00
1169, 9.000000000000e-02, -3.000000000000e-02, 0.000000000000e+00
1170, 1.000000000000e-01, -3.000000000000e-02, 0.000000000000e+00
1171, 1.100000000000e-01, -3.000000000000e-02, 0.000000000000e+00
1172, 1.200000000000e-01, -3.000000000000e-02, 0.000000000000e+00
1173, 1.300000000000e-01, -3.000000000000e-02, 0.000000000000e+00
1174, 1.400000000000e-01, -3.000000000000e-02, 0.000000000000e+00
1175, 1.500000000000e-01, -3.000000000000e-02, 0.000000000000e+00
1176, 1.600000000000e-01, -3.000000000000e-02, 0.000000000000e+00
1177, 1.700000000000e-01, -3.000000000000e-02, 0.000000000000e+00
1178, 1.800000000000e-01, -3.000000000000e-02, 0.000000000000e+00
1179, 1.900000000000e-01, -3.000000000000e-02, 0.000000000000e+00
1180, 2.000000000000e-01, -3.000000000000e-02, 0.000000000000e+00
1181, 2.100000000000e-01, -3.000000000000e-02, 0.000000000000e+00
1182, 2.200000000000e-01, -3.000000000000e-02, 0.000000000000e+00
1183, 2.300000000000e-01, -3.000000000000e-02, 0.000000000000e+00
1184, 2.400000000000e-01, -3.000000000000e-02, 0.000000000000e+00
1185, 2.500000000000e-01, -3.000000000000e-02, 0.000000000000e+00
1186, 2.600000000000e-01, -3.000000000000e-02, 0.000000000000e+00
1187, 2.700000000000e-01, -3.000000000000e-02, 0.000000000000e+00
1188, 2.800000000000e-01, -3.000000000000e-02, 0.000000000000e+00
1189, 2.900000000000e-01, -3.000000000000e-02, 0.000000000000e+00
1190, 3.000000000000e-01, -3.000000000000e-02, 0.000000000000e+00
1191, 3.100000000000e-01, -3.000000000000e-02, 0.000000000000e+00
1192, 3.200000000000e-01, -3.000000000000e-02, 0.000000000000e+00
1193, 3.300000000000e-01, -3.000000000000e-02, 0.000000000000e+00
1194, 3.400000000000e-01, -3.000000000000e-02, 0.000000000000e+00
1195, 3.500000000000e-01, -3.000000000000e-02, 0.000000000000e+00
1196, 3.600000000000e-01, -3.000000000000e-02, 0.000000000000e+00
1197, 3.700000000000e-01, -3.000000000000e-02, 0.000000000000e+00
1198, 3.800000000000e-01, -3.000000000000e-02, 0.000000000000e+00
1199, 3.900000000000e-01, -3.000000000000e-02, 0.000000000000e+00
1200, 4.000000000000e-01, -3.000000000000e-02, 0.000000000000e+00
1201, 4.100000000000e-01, -3.000000000000e-02, 0.000000000000e+00
1202, 4.200000000000e-01, -3.000000000000e-02, 0.000000000000e+00
1203, 4.300000000000e-01, -3.000000000000e-02, 0.000000000000e+00
1204, 4.400000000000e-01, -3.000000000000e-02, 0.000000000000e+00
1205, 4.500000000000e-01, -3.000000000000e-02, 0.000000000000e+00
1206, 4.600000000000e-01, -3.000000000000e-02, 0.000000000000e+00
1207, 4.700000000000e-01, -3.000000000000e-02, 0.000000000000e+00
1208, 4.800000000000e-01, -3.000000000000e-02, 0.000000000000e+00
1209, 4.900000000000e-01, -3.000000000000e-02, 0.000000000000e+00
1210, 5.000000000000e-01, -3.000000000000e-02, 0.000000000000e+00
1211, 5.100000000000e-01, -3.000000000000e-02, 0.000000000000e+00
1212, 5.200000000000e-01, -3.000000000000e-02, 0.000000000000e+00
1213, 5.300000000000e-01, -3.000000000000e-02, 0.000000000000e+00
1214, 5.400000000000e-01, -3.000000000000e-02, 0.000000000000e+00
1215, 5.500000000000e-01, -3.000000000000e-02, 0.000000000000e+00
1216, 5.600000000000e-01, -3.000000000000e-02, 0.000000000000e+00
1217, 5.700000000000e-01, -3.000000000000e-02, 0.000000000000e+00
1218, 5.800000000000e-01, -3.000000000000e-02, 0.000000000000e+00
1219, 5.900000000000e-01, -3.000000000000e-02, 0.000000000000e+00
1220, 6.000000000000e-01, -3.000000000000e-02, 0.000000000000e+00
1221, 0.000000000000e+00, -2.000000000000e-02, 0.000000000000e+00
1222, 1.000000000000e-02, -2.000000000000e-02, 0.000000000000e+00
1223, 2.000000000000e-02, -2.000000000000e-02, 0.000000000000e+00
1224, 3.000000000000e-02, -2.000000000000e-02, 0.000000000000e+00
1225, 4.000000000000e-02, -2.000000000000e-02, 0.000000000000e+00
1226, 5.000000000000e-02, -2.000000000000e-02, 0.000000000000e+00
1227, 6.000000000000e-02, -2.000000000000e-02, 0.000000000000e+00
1228, 7.000000000000e-02, -2.000000000000e-02, 0.000000000000e+00
1229, 8.000000000000e-02, -2.000000000000e-02, 0.000000000000e+00
1230, 9.000000000000e-02, -2.000000000000e-02, 0.000000000000e+00
1231, 1.000000000000e-01, -2.000000000000e-02, 0.000000000000e+00
1232, 1.100000000000e-01, -2.000000000000e-02, 0.000000000000e+00
1233, 1.200000000000e-01, -2.000000000000e-02, 0.000000000000e+00
1234, 1.300000000000e-01, -2.000000000000e-02, 0.000000000000e+00
1235, 1.400000000000e-01, -2.000000000000e-02, 0.000000000000e+00
1236, 1.500000000000e-01, -2.000000000000e-02, 0.000000000000e+00
1237, 1.600000000000e-01, -2.000000000000e-02, 0.000000000000e+00
1238, 1.700000000000e-01, -2.000000000000e-02, 0.000000000000e+00
1239, 1.800000000000e-01, -2.000000000000e-02, 0.000000000000e+00
1240, 1.900000000000e-01, -2.000000000000e-02, 0.000000000000e+00
1241, 2.000000000000e-01, -2.000000000000e-02, 0.000000000000e+00
1242, 2.100000000000e-01, -2.000000000000e-02, 0.000000000000e+00
1243, 2.200000000000e-01, -2.000000000000e-02, 0.000000000000e+00
1244, 2.300000000000e-01, -2.000000000000e-02, 0.000000000000e+00
1245, 2.400000000000e-01, -2.000000000000e-02, 0.000000000000e+00
1246, 2.500000000000e-01, -2.000000000000e-02, 0.000000000000e+00
1247, 2.600000000000e-01, -2.000000000000e-02, 0.000000000000e+00
1248, 2.700000000000e-01, -2.000000000000e-02, 0.000000000000e+00
1249, 2.800000000000e-01, -2.000000000000e-02, 0.000000000000e+00
1250, 2.900000000000e-01, -2.000000000000e-02, 0.000000000000e+00
1251, 3.000000000000e-01, -2.000000000000e-02, 0.000000000000e+00
1252, 3.100000000000e-01, -2.000000000000e-02, 0.000000000000e+00
1253, 3.200000000000e-01, -2.000000000000e-02, 0.000000000000e+00
1254, 3.300000000000e-01, -2.000000000000e-02, 0.000000000000e+00
1255, 3.400000000000e-01, -2.000000000000e-02, 0.000000000000e+00
1256, 3.500000000000e-01, -2.000000000000e-02, 0.000000000000e+00
1257, 3.600000000000e-01, -2.000000000000e-02, 0.000000000000e+00
1258, 3.700000000000e-01, -2.000000000000e-02, 0.000000000000e+00
1259, 3.800000000000e-01, -2.000000000000e-02, 0.000000000000e+00
1260, 3.900000000000e-01, -2.000000000000e-02, 0.000000000000e+00
1261, 4.000000000000e-01, -2.000000000000e-02, 0.000000000000e+00
1262, 4.100000000000e-01, -2.000000000000e-02, 0.000000000000e+00
1263, 4.200000000000e-01, -2.000000000000e-02, 0.000000000000e+00
1264, 4.300000000000e-01, -2.000000000000e-02, 0.000000000000e+00
1265, 4.400000000000e-01, -2.000000000000e-02, 0.000000000000e+00
1266, 4.500000000000e-01, -2.000000000000e-02, 0.000000000000e+00
1267, 4.600000000000e-01, -2.000000000000e-02, 0.000000000000e+00
1268, 4.700000000000e-01, -2.000000000000e-02, 0.000000000000e+00
1269, 4.800000000000e-01, -2.000000000000e-02, 0.000000000000e+00
1270, 4.900000000000e-01, -2.000000000000e-02, 0.000000000000e+00
1271, 5.000000000000e-01, -2.000000000000e-02, 0.000000000000e+00
1272, 5.100000000000e-01, -2.000000000000e-02, 0.000000000000e+00
1273, 5.200000000000e-01, -2.000000000000e-02, 0.000000000000e+00
1274, 5.300000000000e-01, -2.000000000000e-02, 0.000000000000e+00
1275, 5.400000000000e-01, -2.000000000000e-02, 0.000000000000e+00
1276, 5.500000000000e-01, -2.000000000000e-02, 0.000000000000e+00
1277, 5.600000000000e-01, -2.000000000000e-02, 0.000000000000e+00
1278, 5.700000000000e-01, -2.000000000000e-02, 0.000000000000e+00
1279, 5.800000000000e-01, -2.000000000000e-02, 0.000000000000e+00
1280, 5.900000000000e-01, -2.000000000000e-02, 0.000000000000e+00
1281, 6.000000000000e-01, -2.000000000000e-02, 0.000000000000e+00
1282, 0.000000000000e+00, -1.000000000000e-02, 0.000000000000e+00
1283, 1.000000000000e-02, -1.000000000000e-02, 0.000000000000e+00
1284, 2.000000000000e-02, -1.000000000000e-02, 0.000000000000e+00
1285, 3.000000000000e-02, -1.000000000000e-02, 0.000000000000e+00
1286, 4.000000000000e-02, -1.000000000000e-02, 0.000000000000e+00
1287, 5.000000000000e-02, -1.000000000000e-02, 0.000000000000e+00
1288, 6.000000000000e-02, -1.000000000000e-02, 0.000000000000e+00
1289, 7.000000000000e-02, -1.000000000000e-02, 0.000000000000e+00
1290, 8.000000000000e-02, -1.000000000000e-02, 0.000000000000e+00
1291, 9.000000000000e-02, -1.000000000000e-02, 0.000000000000e+00
1292, 1.000000000000e-01, -1.000000000000e-02, 0.000000000000e+00
1293, 1.100000000000e-01, -1.000000000000e-02, 0.000000000000e+00
1294, 1.200000000000e-01, -1.000000000000e-02, 0.000000000000e+00
1295, 1.300000000000e-01, -1.000000000000e-02, 0.000000000000e+00
1296, 1.400000000000e-01, -1.000000000000e-02, 0.000000000000e+00
1297, 1.500000000000e-01, -1.000000000000e-02, 0.000000000000e+00
1298, 1.600000000000e-01, -1.000000000000e-02, 0.000000000000e+00
1299, 1.700000000000e-01, -1.000000000000e-02, 0.000000000000e+00
1300, 1.800000000000e-01, -1.000000000000e-02, 0.000000000000e+00
1301, 1.900000000000e-01, -1.000000000000e-02, 0.000000000000e+00
1302, 2.000000000000e-01, -1.000000000000e-02, 0.000000000000e+00
1303, 2.100000000000e-01, -1.000000000000e-02, 0.000000000000e+00
1304, 2.200000000000e-01, -1.000000000000e-02, 0.000000000000e+00
1305, 2.300000000000e-01, -1.000000000000e-02, 0.000000000000e+00
1306, 2.400000000000e-01, -1.000000000000e-02, 0.000000000000e+00
1307, 2.500000000000e-01, -1.000000000000e-02, 0.000000000000e+00
1308, 2.600000000000e-01, -1.000000000000e-02, 0.000000000000e+00
1309, 2.700000000000e-01, -1.000000000000e-02, 0.000000000000e+00
1310, 2.800000000000e-01, -1.000000000000e-02, 0.000000000000e+00
1311, 2.900000000000e-01, -1.000000000000e-02, 0.000000000000e+00
1312, 3.000000000000e-01, -1.000000000000e-02, 0.000000000000e+00
1313, 3.100000000000e-01, -1.000000000000e-02, 0.000000000000e+00
1314, 3.200000000000e-01, -1.000000000000e-02, 0.000000000000e+00
1315, 3.300000000000e-01, -1.000000000000e-02, 0.000000000000e+00
1316, 3.400000000000e-01, -1.000000000000e-02, 0.000000000000e+00
1317, 3.500000000000e-01, -1.000000000000e-02, 0.000000000000e+00
1318, 3.600000000000e-01, -1.000000000000e-02, 0.000000000000e+00
1319, 3.700000000000e-01, -1.000000000000e-02, 0.000000000000e+00
1320, 3.800000000000e-01, -1.000000000000e-02, 0.000000000000e+00
1321, 3.900000000000e-01, -1.000000000000e-02, 0.000000000000e+00
1322, 4.000000000000e-01, -1.000000000000e-02, 0.000000000000e+00
1323, 4.100000000000e-01, -1.000000000000e-02, 0.000000000000e+00
1324, 4.200000000000e-01, -1.000000000000e-02, 0.000000000000e+00
1325, 4.300000000000e-01, -1.000000000000e-02, 0.000000000000e+00
1326, 4.400000000000e-01, -1.000000000000e-02, 0.000000000000e+00
1327, 4.500000000000e-01, -1.000000000000e-02, 0.000000000000e+00
1328, 4.600000000000e-01, -1.000000000000e-02, 0.000000000000e+00
1329, 4.700000000000e-01, -1.000000000000e-02, 0.000000000000e+00
1330, 4.800000000000e-01, -1.000000000000e-02, 0.000000000000e+00
1331, 4.900000000000e-01, -1.000000000000e-02, 0.000000000000e+00
1332, 5.000000000000e-01, -1.000000000000e-02, 0.000000000000e+00
1333, 5.100000000000e-01, -1.000000000000e-02, 0.000000000000e+00
1334, 5.200000000000e-01, -1.000000000000e-02, 0.000000000000e+00
1335, 5.300000000000e-01, -1.000000000000e-02, 0.000000000000e+00
1336, 5.400000000000e-01, -1.000000000000e-02, 0.000000000000e+00
1337, 5.500000000000e-01, -1.000000000000e-02, 0.000000000000e+00
1338, 5.600000000000e-01, -1.000000000000e-02, 0.000000000000e+00
1339, 5.700000000000e-01, -1.000000000000e-02, 0.000000000000e+00
1340, 5.800000000000e-01, -1.000000000000e-02, 0.000000000000e+00
1341, 5.900000000000e-01, -1.000000000000e-02, 0.000000000000e+00
1342, 6.000000000000e-01, -1.000000000000e-02, 0.000000000000e+00
1343, 0.000000000000e+00, 0.000000000000e+00, 0.000000000000e+00
1344, 1.000000000000e-02, 0.000000000000e+00, 0.000000000000e+00
1345, 2.000000000000e-02, 0.000000000000e+00, 0.000000000000e+00
1346, 3.000000000000e-02, 0.000000000000e+00, 0.000000000000e+00
1347, 4.000000000000e-02, 0.000000000000e+00, 0.000000000000e+00
1348, 5.000000000000e-02, 0.000000000000e+00, 0.000000000000e+00
1349, 6.000000000000e-02, 0.000000000000e+00, 0.000000000000e+00
1350, 7.000000000000e-02, 0.000000000000e+00, 0.000000000000e+00
1351, 8.000000000000e-02, 0.000000000000e+00, 0.000000000000e+00
1352, 9.000000000000e-02, 0.000000000000e+00, 0.000000000000e+00
1353, 1.000000000000e-01, 0.000000000000e+00, 0.000000000000e+00
1354, 1.100000000000e-01, 0.000000000000e+00, 0.000000000000e+00
1355, 1.200000000000e-01, 0.000000000000e+00, 0.000000000000e+00
1356, 1.300000000000e-01, 0.000000000000e+00, 0.000000000000e+00
1357, 1.400000000000e-01, 0.000000000000e+00, 0.000000000000e+00
1358, 1.500000000000e-01, 0.000000000000e+00, 0.000000000000e+00
1359, 1.600000000000e-01, 0.000000000000e+00, 0.000000000000e+00
1360, 1.700000000000e-01, 0.000000000000e+00, 0.000000000000e+00
1361, 1.800000000000e-01, 0.000000000000e+00, 0.000000000000e+00
1362, 1.900000000000e-01, 0.000000000000e+00, 0.000000000000e+00
1363, 2.000000000000e-01, 0.000000000000e+00, 0.000000000000e+00
1364, 2.100000000000e-01, 0.000000000000e+00, 0.000000000000e+00
1365, 2.200000000000e-01, 0.000000000000e+00, 0.000000000000e+00
1366, 2.300000000000e-01, 0.000000000000e+00, 0.000000000000e+00
1367, 2.400000000000e-01, 0.000000000000e+00, 0.000000000000e+00
1368, 2.500000000000e-01, 0.000000000000e+00, 0.000000000000e+00
1369, 2.600000000000e-01, 0.000000000000e+00, 0.000000000000e+00
1370, 2.700000000000e-01, 0.000000000000e+00, 0.000000000000e+00
1371, 2.800000000000e-01, 0.000000000000e+00, 0.000000000000e+00
1372, 2.900000000000e-01, 0.000000000000e+00, 0.000000000000e+00
1373, 3.000000000000e-01, 0.000000000000e+00, 0.000000000000e+00
1374, 3.100000000000e-01, 0.000000000000e+00, 0.000000000000e+00
1375, 3.200000000000e-01, 0.000000000000e+00, 0.000000000000e+00
1376, 3.300000000000e-01, 0.000000000000e+00, 0.000000000000e+00
1377, 3.400000000000e-01, 0.000000000000e+00, 0.000000000000e+00
1378, 3.500000000000e-01, 0.000000000000e+00, 0.000000000000e+00
1379, 3.600000000000e-01, 0.000000000000e+00, 0.000000000000e+00
1380, 3.700000000000e-01, 0.000000000000e+00, 0.000000000000e+00
1381, 3.800000000000e-01, 0.000000000000e+00, 0.000000000000e+00
1382, 3.900000000000e-01, 0.000000000000e+00, 0.000000000000e+00
1383, 4.000000000000e-01, 0.000000000000e+00, 0.000000000000e+00
1384, 4.100000000000e-01, 0.000000000000e+00, 0.000000000000e+00
1385, 4.200000000000e-01, 0.000000000000e+00, 0.000000000000e+00
1386, 4.300000000000e-01, 0.000000000000e+00, 0.000000000000e+00
1387, 4.400000000000e-01, 0.000000000000e+00, 0.000000000000e+00
1388, 4.500000000000e-01, 0.000000000000e+00, 0.000000000000e+00
1389, 4.600000000000e-01, 0.000000000000e+00, 0.000000000000e+00
1390, 4.700000000000e-01, 0.000000000000e+00, 0.000000000000e+00
1391, 4.800000000000e-01, 0.000000000000e+00, 0.000000000000e+00
1392, 4.900000000000e-01, 0.000000000000e+00, 0.000000000000e+00
1393, 5.000000000000e-01, 0.000000000000e+00, 0.000000000000e+00
1394, 5.100000000000e-01, 0.000000000000e+00, 0.000000000000e+00
1395, 5.200000000000e-01, 0.000000000000e+00, 0.000000000000e+00
1396, 5.300000000000e-01, 0.000000000000e+00, 0.000000000000e+00
1397, 5.400000000000e-01, 0.000000000000e+00, 0.000000000000e+00
1398, 5.500000000000e-01, 0.000000000000e+00, 0.000000000000e+00
1399, 5.600000000000e-01, 0.000000000000e+00, 0.000000000000e+00
1400, 5.700000000000e-01, 0.000000000000e+00, 0.000000000000e+00
1401, 5.800000000000e-01, 0.000000000000e+00, 0.000000000000e+00
1402, 5.900000000000e-01, 0.000000000000e+00, 0.000000000000e+00
1403, 6.000000000000e-01, 0.000000000000e+00, 0.000000000000e+00
1404, 0.000000000000e+00, 1.000000000000e-02, 0.000000000000e+00
1405, 1.000000000000e-02, 1.000000000000e-02, 0.000000000000e+00
1406, 2.000000000000e-02, 1.000000000000e-02, 0.000000000000e+00
1407, 3.000000000000e-02, 1.000000000000e-02, 0.000000000000e+00
1408, 4.000000000000e-02, 1.000000000000e-02, 0.000000000000e+00
1409, 5.000000000000e-02, 1.000000000000e-02, 0.000000000000e+00
1410, 6.000000000000e-02, 1.000000000000e-02, 0.000000000000e+00
1411, 7.000000000000e-02, 1.000000000000e-02, 0.000000000000e+00
1412, 8.000000000000e-02, 1.000000000000e-02, 0.000000000000e+00
1413, 9.000000000000e-02, 1.000000000000e-02, 0.000000000000e+00
1414, 1.000000000000e-01, 1.000000000000e-02, 0.000000000000e+00
1415, 1.100000000000e-01, 1.000000000000e-02, 0.000000000000e+00
1416, 1.200000000000e-01, 1.000000000000e-02, 0.000000000000e+00
1417, 1.300000000000e-01, 1.000000000000e-02, 0.000000000000e+00
1418, 1.400000000000e-01, 1.000000000000e-02, 0.000000000000e+00
1419, 1.500000000000e-01, 1.000000000000e-02, 0.000000000000e+00
1420, 1.600000000000e-01, 1.000000000000e-02, 0.000000000000e+00
1421, 1.700000000000e-01, 1.000000000000e-02, 0.000000000000e+00
1422, 1.800000000000e-01, 1.000000000000e-02, 0.000000000000e+00
1423, 1.900000000000e-01, 1.000000000000e-02, 0.000000000000e+00
1424, 2.000000000000e-01, 1.000000000000e-02, 0.000000000000e+00
1425, 2.100000000000e-01, 1.000000000000e-02, 0.000000000000e+00
1426, 2.200000000000e-01, 1.000000000000e-02, 0.000000000000e+00
1427, 2.300000000000e-01, 1.000000000000e-02, 0.000000000000e+00
1428, 2.400000000000e-01, 1.000000000000e-02, 0.000000000000e+00
1429, 2.500000000000e-01, 1.000000000000e-02, 0.000000000000e+00
1430, 2.600000000000e-01, 1.000000000000e-02, 0.000000000000e+00
1431, 2.700000000000e-01, 1.000000000000e-02, 0.000000000000e+00
1432, 2.800000000000e-01, 1.000000000000e-02, 0.000000000000e+00
1433, 2.900000000000e-01, 1.000000000000e-02, 0.000000000000e+00
1434, 3.000000000000e-01, 1.000000000000e-02, 0.000000000000e+00
1435, 3.100000000000e-01, 1.000000000000e-02, 0.000000000000e+00
1436, 3.200000000000e-01, 1.000000000000e-02, 0.000000000000e+00
1437, 3.300000000000e-01, 1.000000000000e-02, 0.000000000000e+00
1438, 3.400000000000e-01, 1.000000000000e-02, 0.000000000000e+00
1439, 3.500000000000e-01, 1.000000000000e-02, 0.000000000000e+00
1440, 3.600000000000e-01, 1.000000000000e-02, 0.000000000000e+00
1441, 3.700000000000e-01, 1.000000000000e-02, 0.000000000000e+00
1442, 3.800000000000e-01, 1.000000000000e-02, 0.000000000000e+00
1443, 3.900000000000e-01, 1.000000000000e-02, 0.000000000000e+00
1444, 4.000000000000e-01, 1.000000000000e-02, 0.000000000000e+00
1445, 4.100000000000e-01, 1.000000000000e-02, 0.000000000000e+00
1446, 4.200000000000e-01, 1.000000000000e-02, 0.000000000000e+00
1447, 4.300000000000e-01, 1.000000000000e-02, 0.000000000000e+00
1448, 4.400000000000e-01, 1.000000000000e-02, 0.000000000000e+00
1449, 4.500000000000e-01, 1.000000000000e-02, 0.000000000000e+00
1450, 4.600000000000e-01, 1.000000000000e-02, 0.000000000000e+00
1451, 4.700000000000e-01, 1.000000000000e-02, 0.000000000000e+00
1452, 4.800000000000e-01, 1.000000000000e-02, 0.000000000000e+00
1453, 4.900000000000e-01, 1.000000000000e-02, 0.000000000000e+00
1454, 5.000000000000e-01, 1.000000000000e-02, 0.000000000000e+00
1455, 5.100000000000e-01, 1.000000000000e-02, 0.000000000000e+00
1456, 5.200000000000e-01, 1.000000000000e-02, 0.000000000000e+00
1457, 5.300000000000e-01, 1.000000000000e-02, 0.000000000000e+00
1458, 5.400000000000e-01, 1.000000000000e-02, 0.000000000000e+00
1459, 5.500000000000e-01, 1.000000000000e-02, 0.000000000000e+00
1460, 5.600000000000e-01, 1.000000000000e-02, 0.000000000000e+00
1461, 5.700000000000e-01, 1.000000000000e-02, 0.000000000000e+00
1462, 5.800000000000e-01, 1.000000000000e-02, 0.000000000000e+00
1463, 5.900000000000e-01, 1.000000000000e-02, 0.000000000000e+00
1464, 6.000000000000e-01, 1.000000000000e-02, 0.000000000000e+00
1465, 0.000000000000e+00, 2.000000000000e-02, 0.000000000000e+00
1466, 1.000000000000e-02, 2.000000000000e-02, 0.000000000000e+00
1467, 2.000000000000e-02, 2.000000000000e-02, 0.000000000000e+00
1468, 3.000000000000e-02, 2.000000000000e-02, 0.000000000000e+00
1469, 4.000000000000e-02, 2.000000000000e-02, 0.000000000000e+00
1470, 5.000000000000e-02, 2.000000000000e-02, 0.000000000000e+00
1471, 6.000000000000e-02, 2.000000000000e-02, 0.000000000000e+00
1472, 7.000000000000e-02, 2.000000000000e-02, 0.000000000000e+00
1473, 8.000000000000e-02, 2.000000000000e-02, 0.000000000000e+00
1474, 9.000000000000e-02, 2.000000000000e-02, 0.000000000000e+00
1475, 1.000000000000e-01, 2.000000000000e-02, 0.000000000000e+00
1476, 1.100000000000e-01, 2.000000000000e-02, 0.000000000000e+00
1477, 1.200000000000e-01, 2.000000000000e-02, 0.000000000000e+00
1478, 1.300000000000e-01, 2.000000000000e-02, 0.000000000000e+00
1479, 1.400000000000e-01, 2.000000000000e-02, 0.000000000000e+00
1480, 1.500000000000e-01, 2.000000000000e-02, 0.000000000000e+00
1481, 1.600000000000e-01, 2.000000000000e-02, 0.000000000000e+00
1482, 1.700000000000e-01, 2.000000000000e-02, 0.000000000000e+00
1483, 1.800000000000e-01, 2.000000000000e-02, 0.000000000000e+00
1484, 1.900000000000e-01, 2.000000000000e-02, 0.000000000000e+00
1485, 2.000000000000e-01, 2.000000000000e-02, 0.000000000000e+00
1486, 2.100000000000e-01, 2.000000000000e-02, 0.000000000000e+00
1487, 2.200000000000e-01, 2.000000000000e-02, 0.000000000000e+00
1488, 2.300000000000e-01, 2.000000000000e-02, 0.000000000000e+00
1489, 2.400000000000e-01, 2.000000000000e-02, 0.000000000000e+00
1490, 2.500000000000e-01, 2.000000000000e-02, 0.000000000000e+00
1491, 2.600000000000e-01, 2.000000000000e-02, 0.000000000000e+00
1492, 2.700000000000e-01, 2.000000000000e-02, 0.000000000000e+00
1493, 2.800000000000e-01, 2.000000000000e-02, 0.000000000000e+00
1494, 2.900000000000e-01, 2.000000000000e-02, 0.000000000000e+00
1495, 3.000000000000e-01, 2.000000000000e-02, 0.000000000000e+00
1496, 3.100000000000e-01, 2.000000000000e-02, 0.000000000000e+00
1497, 3.200000000000e-01, 2.000000000000e-02, 0.000000000000e+00
1498, 3.300000000000e-01, 2.000000000000e-02, 0.000000000000e+00
1499, 3.400000000000e-01, 2.000000000000e-02, 0.000000000000e+00
1500, 3.500000000000e-01, 2.000000000000e-02, 0.000000000000e+00
1501, 3.600000000000e-01, 2.000000000000e-02, 0.000000000000e+00
1502, 3.700000000000e-01, 2.000000000000e-02, 0.000000000000e+00
1503, 3.800000000000e-01, 2.000000000000e-02, 0.000000000000e+00
1504, 3.900000000000e-01, 2.000000000000e-02, 0.000000000000e+00
1505, 4.000000000000e-01, 2.000000000000e-02, 0.000000000000e+00
1506, 4.100000000000e-01, 2.000000000000e-02, 0.000000000000e+00
1507, 4.200000000000e-01, 2.000000000000e-02, 0.000000000000e+00
1508, 4.300000000000e-01, 2.000000000000e-02, 0.000000000000e+00
1509, 4.400000000000e-01, 2.000000000000e-02, 0.000000000000e+00
1510, 4.500000000000e-01, 2.000000000000e-02, 0.000000000000e+00
1511, 4.600000000000e-01, 2.000000000000e-02, 0.000000000000e+00
1512, 4.700000000000e-01, 2.000000000000e-02, 0.000000000000e+00
1513, 4.800000000000e-01, 2.000000000000e-02, 0.000000000000e+00
1514, 4.900000000000e-01, 2.000000000000e-02, 0.000000000000e+00
1515, 5.000000000000e-01, 2.000000000000e-02, 0.000000000000e+00
1516, 5.100000000000e-01, 2.000000000000e-02, 0.000000000000e+00
1517, 5.200000000000e-01, 2.000000000000e-02, 0.000000000000e+00
1518, 5.300000000000e-01, 2.000000000000e-02, 0.000000000000e+00
1519, 5.400000000000e-01, 2.000000000000e-02, 0.000000000000e+00
1520, 5.500000000000e-01, 2.000000000000e-02, 0.000000000000e+00
1521, 5.600000000000e-01, 2.000000000000e-02, 0.000000000000e+00
1522, 5.700000000000e-01, 2.000000000000e-02, 0.000000000000e+00
1523, 5.800000000000e-01, 2.000000000000e-02, 0.000000000000e+00
1524, 5.900000000000e-01, 2.000000000000e-02, 0.000000000000e+00
1525, 6.000000000000e-01, 2.000000000000e-02, 0.000000000000e+00
1526, 0.000000000000e+00, 3.000000000000e-02, 0.000000000000e+00
1527, 1.000000000000e-02, 3.000000000000e-02, 0.000000000000e+00
1528, 2.000000000000e-02, 3.000000000000e-02, 0.000000000000e+00
1529, 3.000000000000e-02, 3.000000000000e-02, 0.000000000000e+00
1530, 4.000000000000e-02, 3.000000000000e-02, 0.000000000000e+00
1531, 5.000000000000e-02, 3.000000000000e-02, 0.000000000000e+00
1532, 6.000000000000e-02, 3.000000000000e-02, 0.000000000000e+00
1533, 7.000000000000e-02, 3.000000000000e-02, 0.000000000000e+00
1534, 8.000000000000e-02, 3.000000000000e-02, 0.000000000000e+00
1535, 9.000000000000e-02, 3.000000000000e-02, 0.000000000000e+00
1536, 1.000000000000e-01, 3.000000000000e-02, 0.000000000000e+00
1537, 1.100000000000e-01, 3.000000000000e-02, 0.000000000000e+00
1538, 1.200000000000e-01, 3.000000000000e-02, 0.000000000000e+00
1539, 1.300000000000e-01, 3.000000000000e-02, 0.000000000000e+00
1540, 1.400000000000e-01, 3.000000000000e-02, 0.000000000000e+00
1541, 1.500000000000e-01, 3.000000000000e-02, 0.000000000000e+00
1542, 1.600000000000e-01, 3.000000000000e-02, 0.000000000000e+00
1543, 1.700000000000e-01, 3.000000000000e-02, 0.000000000000e+00
1544, 1.800000000000e-01, 3.000000000000e-02, 0.000000000000e+00
1545, 1.900000000000e-01, 3.000000000000e-02, 0.000000000000e+00
1546, 2.000000000000e-01, 3.000000000000e-02, 0.000000000000e+00
1547, 2.100000000000e-01, 3.000000000000e-02, 0.000000000000e+00
1548, 2.200000000000e-01, 3.000000000000e-02, 0.000000000000e+00
1549, 2.300000000000e-01, 3.000000000000e-02, 0.000000000000e+00
1550, 2.400000000000e-01, 3.000000000000e-02, 0.000000000000e+00
1551, 2.500000000000e-01, 3.000000000000e-02, 0.000000000000e+00
1552, 2.600000000000e-01, 3.000000000000e-02, 0.000000000000e+00
1553, 2.700000000000e-01, 3.000000000000e-02, 0.000000000000e+00
1554, 2.800000000000e-01, 3.000000000000e-02, 0.000000000000e+00
1555, 2.900000000000e-01, 3.000000000000e-02, 0.000000000000e+00
1556, 3.000000000000e-01, 3.000000000000e-02, 0.000000000000e+00
1557, 3.100000000000e-01, 3.000000000000e-02, 0.000000000000e+00
1558, 3.200000000000e-01, 3.000000000000e-02, 0.000000000000e+00
1559, 3.300000000000e-01, 3.000000000000e-02, 0.000000000000e+00
1560, 3.400000000000e-01, 3.000000000000e-02, 0.000000000000e+00
1561, 3.500000000000e-01, 3.000000000000e-02, 0.000000000000e+00
1562, 3.600000000000e-01, 3.000000000000e-02, 0.000000000000e+00
1563, 3.700000000000e-01, 3.000000000000e-02, 0.000000000000e+00
1564, 3.800000000000e-01, 3.000000000000e-02, 0.000000000000e+00
1565, 3.900000000000e-01, 3.000000000000e-02, 0.000000000000e+00
1566, 4.000000000000e-01, 3.000000000000e-02, 0.000000000000e+00
1567, 4.100000000000e-01, 3.000000000000e-02, 0.000000000000e+00
1568, 4.200000000000e-01, 3.000000000000e-02, 0.000000000000e+00
1569, 4.300000000000e-01, 3.000000000000e-02, 0.000000000000e+00
1570, 4.400000000000e-01, 3.000000000000e-02, 0.000000000000e+00
1571, 4.500000000000e-01, 3.000000000000e-02, 0.000000000000e+00
1572, 4.600000000000e-01, 3.000000000000e-02, 0.000000000000e+00
1573, 4.700000000000e-01, 3.000000000000e-02, 0.000000000000e+00
1574, 4.800000000000e-01, 3.000000000000e-02, 0.000000000000e+00
1575, 4.900000000000e-01, 3.000000000000e-02, 0.000000000000e+00
1576, 5.000000000000e-01, 3.000000000000e-02, 0.000000000000e+00
1577, 5.100000000000e-01, 3.000000000000e-02, 0.000000000000e+00
1578, 5.200000000000e-01, 3.000000000000e-02, 0.000000000000e+00
1579, 5.300000000000e-01, 3.000000000000e-02, 0.000000000000e+00
1580, 5.400000000000e-01, 3.000000000000e-02, 0.000000000000e+00
1581, 5.500000000000e-01, 3.000000000000e-02, 0.000000000000e+00
1582, 5.600000000000e-01, 3.000000000000e-02, 0.000000000000e+00
1583, 5.700000000000e-01, 3.000000000000e-02, 0.000000000000e+00
1584, 5.800000000000e-01, 3.000000000000e-02, 0.000000000000e+00
1585, 5.900000000000e-01, 3.000000000000e-02, 0.000000000000e+00
1586, 6.000000000000e-01, 3.000000000000e-02, 0.000000000000e+00
1587, 0.000000000000e+00, 4.000000000000e-02, 0.000000000000e+00
1588, 1.000000000000e-02, 4.000000000000e-02, 0.000000000000e+00
1589, 2.000000000000e-02, 4.000000000000e-02, 0.000000000000e+00
1590, 3.000000000000e-02, 4.000000000000e-02, 0.000000000000e+00
1591, 4.000000000000e-02, 4.000000000000e-02, 0.000000000000e+00
1592, 5.000000000000e-02, 4.000000000000e-02, 0.000000000000e+00
1593, 6.000000000000e-02, 4.000000000000e-02, 0.000000000000e+00
1594, 7.000000000000e-02, 4.000000000000e-02, 0.000000000000e+00
1595, 8.000000000000e-02, 4.000000000000e-02, 0.000000000000e+00
1596, 9.000000000000e-02, 4.000000000000e-02, 0.000000000000e+00
1597, 1.000000000000e-01, 4.000000000000e-02, 0.000000000000e+00
1598, 1.100000000000e-01, 4.000000000000e-02, 0.000000000000e+00
1599, 1.200000000000e-01, 4.000000000000e-02, 0.000000000000e+00
1600, 1.300000000000e-01, 4.000000000000e-02, 0.000000000000e+00
1601, 1.400000000000e-01, 4.000000000000e-02, 0.000000000000e+00
1602, 1.500000000000e-01, 4.000000000000e-02, 0.000000000000e+00
1603, 1.600000000000e-01, 4.000000000000e-02, 0.000000000000e+00
1604, 1.700000000000e-01, 4.000000000000e-02, 0.000000000000e+00
1605, 1.800000000000e-01, 4.000000000000e-02, 0.000000000000e+00
1606, 1.900000000000e-01, 4.000000000000e-02, 0.000000000000e+00
1607, 2.000000000000e-01, 4.000000000000e-02, 0.000000000000e+00
1608, 2.100000000000e-01, 4.000000000000e-02, 0.000000000000e+00
1609, 2.200000000000e-01, 4.000000000000e-02, 0.000000000000e+00
1610, 2.300000000000e-01, 4.000000000000e-02, 0.000000000000e+00
1611, 2.400000000000e-01, 4.000000000000e-02, 0.000000000000e+00
1612, 2.500000000000e-01, 4.000000000000e-02, 0.000000000000e+00
1613, 2.600000000000e-01, 4.000000000000e-02, 0.000000000000e+00
1614, 2.700000000000e-01, 4.000000000000e-02, 0.000000000000e+00
1615, 2.800000000000e-01, 4.000000000000e-02, 0.000000000000e+00
1616, 2.900000000000e-01, 4.000000000000e-02, 0.000000000000e+00
1617, 3.000000000000e-01, 4.000000000000e-02, 0.000000000000e+00
1618, 3.100000000000e-01, 4.000000000000e-02, 0.000000000000e+00
1619, 3.200000000000e-01, 4.000000000000e-02, 0.000000000000e+00
1620, 3.300000000000e-01, 4.000000000000e-02, 0.000000000000e+00
1621, 3.400000000000e-01, 4.000000000000e-02, 0.000000000000e+00
1622, 3.500000000000e-01, 4.000000000000e-02, 0.000000000000e+00
1623, 3.600000000000e-01, 4.000000000000e-02, 0.000000000000e+00
1624, 3.700000000000e-01, 4.000000000000e-02, 0.000000000000e+00
1625, 3.800000000000e-01, 4.000000000000e-02, 0.000000000000e+00
1626, 3.900000000000e-01, 4.000000000000e-02, 0.000000000000e+00
1627, 4.000000000000e-01, 4.000000000000e-02, 0.000000000000e+00
1628, 4.100000000000e-01, 4.000000000000e-02, 0.000000000000e+00
1629, 4.200000000000e-01, 4.000000000000e-02, 0.000000000000e+00
1630, 4.300000000000e-01, 4.000000000000e-02, 0.000000000000e+00
1631, 4.400000000000e-01, 4.000000000000e-02, 0.000000000000e+00
1632, 4.500000000000e-01, 4.000000000000e-02, 0.000000000000e+00
1633, 4.600000000000e-01, 4.000000000000e-02, 0.000000000000e+00
1634, 4.700000000000e-01, 4.000000000000e-02, 0.000000000000e+00
1635, 4.800000000000e-01, 4.000000000000e-02, 0.000000000000e+00
1636, 4.900000000000e-01, 4.000000000000e-02, 0.000000000000e+00
1637, 5.000000000000e-01, 4.000000000000e-02, 0.000000000000e+00
1638, 5.100000000000e-01, 4.000000000000e-02, 0.000000000000e+00
1639, 5.200000000000e-01, 4.000000000000e-02, 0.000000000000e+00
1640, 5.300000000000e-01, 4.000000000000e-02, 0.000000000000e+00
1641, 5.400000000000e-01, 4.000000000000e-02, 0.000000000000e+00
1642, 5.500000000000e-01, 4.000000000000e-02, 0.000000000000e+00
1643, 5.600000000000e-01, 4.000000000000e-02, 0.000000000000e+00
1644, 5.700000000000e-01, 4.000000000000e-02, 0.000000000000e+00
1645, 5.800000000000e-01, 4.000000000000e-02, 0.000000000000e+00
1646, 5.900000000000e-01, 4.000000000000e-02, 0.000000000000e+00
1647, 6.000000000000e-01, 4.000000000000e-02, 0.000000000000e+00
1648, 0.000000000000e+00, -4.000000000000e-02, 1.000000000000e-02
1649, 1.000000000000e-02, -4.000000000000e-02, 1.000000000000e-02
1650, 2.000000000000e-02, -4.000000000000e-02, 1.000000000000e-02
1651, 3.000000000000e-02, -4.000000000000e-02, 1.000000000000e-02
1652, 4.000000000000e-02, -4.000000000000e-02, 1.000000000000e-02
1653, 5.000000000000e-02, -4.000000000000e-02, 1.000000000000e-02
1654, 6.000000000000e-02, -4.000000000000e-02, 1.000000000000e-02
1655, 7.000000000000e-02, -4.000000000000e-02, 1.000000000000e-02
1656, 8.000000000000e-02, -4.000000000000e-02, 1.000000000000e-02
1657, 9.000000000000e-02, -4.000000000000e-02, 1.000000000000e-02
1658, 1.000000000000e-01, -4.000000000000e-02, 1.000000000000e-02
1659, 1.100000000000e-01, -4.000000000000e-02, 1.000000000000e-02
1660, 1.200000000000e-01, -4.000000000000e-02, 1.000000000000e-02
1661, 1.300000000000e-01, -4.000000000000e-02, 1.000000000000e-02
1662, 1.400000000000e-01, -4.000000000000e-02, 1.000000000000e-02
1663, 1.500000000000e-01, -4.000000000000e-02, 1.000000000000e-02
1664, 1.600000000000e-01, -4.000000000000e-02, 1.000000000000e-02
1665, 1.700000000000e-01, -4.000000000000e-02, 1.000000000000e-02
1666, 1.800000000000e-01, -4.000000000000e-02, 1.000000000000e-02
1667, 1.900000000000e-01, -4.000000000000e-02, 1.000000000000e-02
1668, 2.000000000000e-01, -4.000000000000e-02, 1.000000000000e-02
1669, 2.100000000000e-01, -4.000000000000e-02, 1.000000000000e-02
1670, 2.200000000000e-01, -4.000000000000e-02, 1.000000000000e-02
1671, 2.300000000000e-01, -4.000000000000e-02, 1.000000000000e-02
1672, 2.400000000000e-01, -4.000000000000e-02, 1.000000000000e-02
1673, 2.500000000000e-01, -4.000000000000e-02, 1.000000000000e-02
1674, 2.600000000000e-01, -4.000000000000e-02, 1.000000000000e-02
1675, 2.700000000000e-01, -4.000000000000e-02, 1.000000000000e-02
1676, 2.800000000000e-01, -4.000000000000e-02, 1.000000000000e-02
1677, 2.900000000000e-01, -4.000000000000e-02, 1.000000000000e-02
1678, 3.000000000000e-01, -4.000000000000e-02, 1.000000000000e-02
1679, 3.100000000000e-01, -4.000000000000e-02, 1.000000000000e-02
1680, 3.200000000000e-01, -4.000000000000e-02, 1.000000000000e-02
1681, 3.300000000000e-01, -4.000000000000e-02, 1.000000000000e-02
1682, 3.400000000000e-01, -4.000000000000e-02, 1.000000000000e-02
1683, 3.500000000000e-01, -4.000000000000e-02, 1.000000000000e-02
1684, 3.600000000000e-01, -4.000000000000e-02, 1.000000000000e-02
1685, 3.700000000000e-01, -4.000000000000e-02, 1.000000000000e-02
1686, 3.800000000000e-01, -4.000000000000e-02, 1.000000000000e-02
1687, 3.900000000000e-01, -4.000000000000e-02, 1.000000000000e-02
1688, 4.000000000000e-01, -4.000000000000e-02, 1.000000000000e-02
1689, 4.100000000000e-01, -4.000000000000e-02, 1.000000000000e-02
1690, 4.200000000000e-01, -4.000000000000e-02, 1.000000000000e-02
1691, 4.300000000000e-01, -4.000000000000e-02, 1.000000000000e-02
1692, 4.400000000000e-01, -4.000000000000e-02, 1.000000000000e-02
1693, 4.500000000000e-01, -4.000000000000e-02, 1.000000000000e-02
1694, 4.600000000000e-01, -4.000000000000e-02, 1.000000000000e-02
1695, 4.700000000000e-01, -4.000000000000e-02, 1.000000000000e-02
1696, 4.800000000000e-01, -4.000000000000e-02, 1.000000000000e-02
1697, 4.900000000000e-01, -4.000000000000e-02, 1.000000000000e-02
1698, 5.000000000000e-01, -4.000000000000e-02, 1.000000000000e-02
1699, 5.100000000000e-01, -4.000000000000e-02, 1.000000000000e-02
1700, 5.200000000000e-01, -4.000000000000e-02, 1.000000000000e-02
1701, 5.300000000000e-01, -4.000000000000e-02, 1.000000000000e-02
1702, 5.400000000000e-01, -4.000000000000e-02, 1.000000000000e-02
1703, 5.500000000000e-01, -4.000000000000e-02, 1.000000000000e-02
1704, 5.600000000000e-01, -4.000000000000e-02, 1.000000000000e-02
1705, 5.700000000000e-01, -4.000000000000e-02, 1.000000000000e-02
1706, 5.800000000000e-01, -4.000000000000e-02, 1.000000000000e-02
1707, 5.900000000000e-01, -4.000000000000e-02, 1.000000000000e-02
1708, 6.000000000000e-01, -4.000000000000e-02, 1.000000000000e-02
1709, 0.000000000000e+00, -3.000000000000e-02, 1.000000000000e-02
1710, 1.000000000000e-02, -3.000000000000e-02, 1.000000000000e-02
1711, 2.000000000000e-02, -3.000000000000e-02, 1.000000000000e-02
1712, 3.000000000000e-02, -3.000000000000e-02, 1.000000000000e-02
1713, 4.000000000000e-02, -3.000000000000e-02, 1.000000000000e-02
1714, 5.000000000000e-02, -3.000000000000e-02, 1.000000000000e-02
1715, 6.000000000000e-02, -3.000000000000e-02, 1.000000000000e-02
1716, 7.000000000000e-02, -3.000000000000e-02, 1.000000000000e-02
1717, 8.000000000000e-02, -3.000000000000e-02, 1.000000000000e-02
1718, 9.000000000000e-02, -3.000000000000e-02, 1.000000000000e-02
1719, 1.000000000000e-01, -3.000000000000e-02, 1.000000000000e-02
1720, 1.100000000000e-01, -3.000000000000e-02, 1.000000000000e-02
1721, 1.200000000000e-01, -3.000000000000e-02, 1.000000000000e-02
1722, 1.300000000000e-01, -3.000000000000e-02, 1.000000000000e-02
1723, 1.400000000000e-01, -3.000000000000e-02, 1.000000000000e-02
1724, 1.500000000000e-01, -3.000000000000e-02, 1.000000000000e-02
1725, 1.600000000000e-01, -3.000000000000e-02, 1.000000000000e-02
1726, 1.700000000000e-01, -3.000000000000e-02, 1.000000000000e-02
1727, 1.800000000000e-01, -3.000000000000e-02, 1.000000000000e-02
1728, 1.900000000000e-01, -3.000000000000e-02, 1.000000000000e-02
1729, 2.000000000000e-01, -3.000000000000e-02, 1.000000000000e-02
1730, 2.100000000000e-01, -3.000000000000e-02, 1.000000000000e-02
1731, 2.200000000000e-01, -3.000000000000e-02, 1.000000000000e-02
1732, 2.300000000000e-01, -3.000000000000e-02, 1.000000000000e-02
1733, 2.400000000000e-01, -3.000000000000e-02, 1.000000000000e-02
1734, 2.500000000000e-01, -3.000000000000e-02, 1.000000000000e-02
1735, 2.600000000000e-01, -3.000000000000e-02, 1.000000000000e-02
1736, 2.700000000000e-01, -3.000000000000e-02, 1.000000000000e-02
1737, 2.800000000000e-01, -3.000000000000e-02, 1.000000000000e-02
1738, 2.900000000000e-01, -3.000000000000e-02, 1.000000000000e-02
1739, 3.000000000000e-01, -3.000000000000e-02, 1.000000000000e-02
1740, 3.100000000000e-01, -3.000000000000e-02, 1.000000000000e-02
1741, 3.200000000000e-01, -3.000000000000e-02, 1.000000000000e-02
1742, 3.300000000000e-01, -3.000000000000e-02, 1.000000000000e-02
1743, 3.400000000000e-01, -3.000000000000e-02, 1.000000000000e-02
1744, 3.500000000000e-01, -3.000000000000e-02, 1.000000000000e-02
1745, 3.600000000000e-01, -3.000000000000e-02, 1.000000000000e-02
1746, 3.700000000000e-01, -3.000000000000e-02, 1.000000000000e-02
1747, 3.800000000000e-01, -3.000000000000e-02, 1.000000000000e-02
1748, 3.900000000000e-01, -3.000000000000e-02, 1.000000000000e-02
1749, 4.000000000000e-01, -3.000000000000e-02, 1.000000000000e-02
1750, 4.100000000000e-01, -3.000000000000e-02, 1.000000000000e-02
1751, 4.200000000000e-01, -3.000000000000e-02, 1.000000000000e-02
1752, 4.300000000000e-01, -3.000000000000e-02, 1.000000000000e-02
1753, 4.400000000000e-01, -3.000000000000e-02, 1.000000000000e-02
1754, 4.500000000000e-01, -3.000000000000e-02, 1.000000000000e-02
1755, 4.600000000000e-01, -3.000000000000e-02, 1.000000000000e-02
1756, 4.700000000000e-01, -3.000000000000e-02, 1.000000000000e-02
1757, 4.800000000000e-01, -3.000000000000e-02, 1.000000000000e-02
1758, 4.900000000000e-01, -3.000000000000e-02, 1.000000000000e-02
1759, 5.000000000000e-01, -3.000000000000e-02, 1.000000000000e-02
1760, 5.100000000000e-01, -3.000000000000e-02, 1.000000000000e-02
1761, 5.200000000000e-01, -3.000000000000e-02, 1.000000000000e-02
1762, 5.300000000000e-01, -3.000000000000e-02, 1.000000000000e-02
1763, 5.400000000000e-01, -3.000000000000e-02, 1.000000000000e-02
1764, 5.500000000000e-01, -3.000000000000e-02, 1.000000000000e-02
1765, 5.600000000000e-01, -3.000000000000e-02, 1.000000000000e-02
1766, 5.700000000000e-01, -3.000000000000e-02, 1.000000000000e-02
1767, 5.800000000000e-01, -3.000000000000e-02, 1.000000000000e-02
1768, 5.900000000000e-01, -3.000000000000e-02, 1.000000000000e-02
1769, 6.000000000000e-01, -3.000000000000e-02, 1.000000000000e-02
1770, 0.000000000000e+00, -2.000000000000e-02, 1.000000000000e-02
1771, 1.000000000000e-02, -2.000000000000e-02, 1.000000000000e-02
1772, 2.000000000000e-02, -2.000000000000e-02, 1.000000000000e-02
1773, 3.000000000000e-02, -2.000000000000e-02, 1.000000000000e-02
1774, 4.000000000000e-02, -2.000000000000e-02, 1.000000000000e-02
1775, 5.000000000000e-02, -2.000000000000e-02, 1.000000000000e-02
1776, 6.000000000000e-02, -2.000000000000e-02, 1.000000000000e-02
1777, 7.000000000000e-02, -2.000000000000e-02, 1.000000000000e-02
1778, 8.000000000000e-02, -2.000000000000e-02, 1.000000000000e-02
1779, 9.000000000000e-02, -2.000000000000e-02, 1.000000000000e-02
1780, 1.000000000000e-01, -2.000000000000e-02, 1.000000000000e-02
1781, 1.100000000000e-01, -2.000000000000e-02, 1.000000000000e-02
1782, 1.200000000000e-01, -2.000000000000e-02, 1.000000000000e-02
1783, 1.300000000000e-01, -2.000000000000e-02, 1.000000000000e-02
1784, 1.400000000000e-01, -2.000000000000e-02, 1.000000000000e-02
1785, 1.500000000000e-01, -2.000000000000e-02, 1.000000000000e-02
1786, 1.600000000000e-01, -2.000000000000e-02, 1.000000000000e-02
1787, 1.700000000000e-01, -2.000000000000e-02, 1.000000000000e-02
1788, 1.800000000000e-01, -2.000000000000e-02, 1.000000000000e-02
1789, 1.900000000000e-01, -2.000000000000e-02, 1.000000000000e-02
1790, 2.000000000000e-01, -2.000000000000e-02, 1.000000000000e-02
1791, 2.100000000000e-01, -2.000000000000e-02, 1.000000000000e-02
1792, 2.200000000000e-01, -2.000000000000e-02, 1.000000000000e-02
1793, 2.300000000000e-01, -2.000000000000e-02, 1.000000000000e-02
1794, 2.400000000000e-01, -2.000000000000e-02, 1.000000000000e-02
1795, 2.500000000000e-01, -2.000000000000e-02, 1.000000000000e-02
1796, 2.600000000000e-01, -2.000000000000e-02, 1.000000000000e-02
1797, 2.700000000000e-01, -2.000000000000e-02, 1.000000000000e-02
1798, 2.800000000000e-01, -2.000000000000e-02, 1.000000000000e-02
1799, 2.900000000000e-01, -2.000000000000e-02, 1.000000000000e-02
1800, 3.000000000000e-01, -2.000000000000e-02, 1.000000000000e-02
1801, 3.100000000000e-01, -2.000000000000e-02, 1.000000000000e-02
1802, 3.200000000000e-01, -2.000000000000e-02, 1.000000000000e-02
1803, 3.300000000000e-01, -2.000000000000e-02, 1.000000000000e-02
1804, 3.400000000000e-01, -2.000000000000e-02, 1.000000000000e-02
1805, 3.500000000000e-01, -2.000000000000e-02, 1.000000000000e-02
1806, 3.600000000000e-01, -2.000000000000e-02, 1.000000000000e-02
1807, 3.700000000000e-01, -2.000000000000e-02, 1.000000000000e-02
1808, 3.800000000000e-01, -2.000000000000e-02, 1.000000000000e-02
1809, 3.900000000000e-01, -2.000000000000e-02, 1.000000000000e-02
1810, 4.000000000000e-01, -2.000000000000e-02, 1.000000000000e-02
1811, 4.100000000000e-01, -2.000000000000e-02, 1.000000000000e-02
1812, 4.200000000000e-01, -2.000000000000e-02, 1.000000000000e-02
1813, 4.300000000000e-01, -2.000000000000e-02, 1.000000000000e-02
1814, 4.400000000000e-01, -2.000000000000e-02, 1.000000000000e-02
1815, 4.500000000000e-01, -2.000000000000e-02, 1.000000000000e-02
1816, 4.600000000000e-01, -2.000000000000e-02, 1.000000000000e-02
1817, 4.700000000000e-01, -2.000000000000e-02, 1.000000000000e-02
1818, 4.800000000000e-01, -2.000000000000e-02, 1.000000000000e-02
1819, 4.900000000000e-01, -2.000000000000e-02, 1.000000000000e-02
1820, 5.000000000000e-01, -2.000000000000e-02, 1.000000000000e-02
1821, 5.100000000000e-01, -2.000000000000e-02, 1.000000000000e-02
1822, 5.200000000000e-01, -2.000000000000e-02, 1.000000000000e-02
1823, 5.300000000000e-01, -2.000000000000e-02, 1.000000000000e-02
1824, 5.400000000000e-01, -2.000000000000e-02, 1.000000000000e-02
1825, 5.500000000000e-01, -2.000000000000e-02, 1.000000000000e-02
1826, 5.600000000000e-01, -2.000000000000e-02, 1.000000000000e-02
1827, 5.700000000000e-01, -2.000000000000e-02, 1.000000000000e-02
1828, 5.800000000000e-01, -2.000000000000e-02, 1.000000000000e-02
1829, 5.900000000000e-01, -2.000000000000e-02, 1.000000000000e-02
1830, 6.000000000000e-01, -2.000000000000e-02, 1.000000000000e-02
1831, 0.000000000000e+00, -1.000000000000e-02, 1.000000000000e-02
1832, 1.000000000000e-02, -1.000000000000e-02, 1.000000000000e-02
1833, 2.000000000000e-02, -1.000000000000e-02, 1.000000000000e-02
1834, 3.000000000000e-02, -1.000000000000e-02, 1.000000000000e-02
1835, 4.000000000000e-02, -1.000000000000e-02, 1.000000000000e-02
1836, 5.000000000000e-02, -1.000000000000e-02, 1.000000000000e-02
1837, 6.000000000000e-02, -1.000000000000e-02, 1.000000000000e-02
1838, 7.000000000000e-02, -1.000000000000e-02, 1.000000000000e-02
1839, 8.000000000000e-02, -1.000000000000e-02, 1.000000000000e-02
1840, 9.000000000000e-02, -1.000000000000e-02, 1.000000000000e-02
1841, 1.000000000000e-01, -1.000000000000e-02, 1.000000000000e-02
1842, 1.100000000000e-01, -1.000000000000e-02, 1.000000000000e-02
1843, 1.200000000000e-01, -1.000000000000e-02, 1.000000000000e-02
1844, 1.300000000000e-01, -1.000000000000e-02, 1.000000000000e-02
1845, 1.400000000000e-01, -1.000000000000e-02, 1.000000000000e-02
1846, 1.500000000000e-01, -1.000000000000e-02, 1.000000000000e-02
1847, 1.600000000000e-01, -1.000000000000e-02, 1.000000000000e-02
1848, 1.700000000000e-01, -1.000000000000e-02, 1.000000000000e-02
1849, 1.800000000000e-01, -1.000000000000e-02, 1.000000000000e-02
1850, 1.900000000000e-01, -1.000000000000e-02, 1.000000000000e-02
1851, 2.000000000000e-01, -1.000000000000e-02, 1.000000000000e-02
1852, 2.100000000000e-01, -1.000000000000e-02, 1.000000000000e-02
1853, 2.200000000000e-01, -1.000000000000e-02, 1.000000000000e-02
1854, 2.300000000000e-01, -1.000000000000e-02, 1.000000000000e-02
1855, 2.400000000000e-01, -1.000000000000e-02, 1.000000000000e-02
1856, 2.500000000000e-01, -1.000000000000e-02, 1.000000000000e-02
1857, 2.600000000000e-01, -1.000000000000e-02, 1.000000000000e-02
1858, 2.700000000000e-01, -1.000000000000e-02, 1.000000000000e-02
1859, 2.800000000000e-01, -1.000000000000e-02, 1.000000000000e-02
1860, 2.900000000000e-01, -1.000000000000e-02, 1.000000000000e-02
1861, 3.000000000000e-01, -1.000000000000e-02, 1.000000000000e-02
1862, 3.100000000000e-01, -1.000000000000e-02, 1.000000000000e-02
1863, 3.200000000000e-01, -1.000000000000e-02, 1.000000000000e-02
1864, 3.300000000000e-01, -1.000000000000e-02, 1.000000000000e-02
1865, 3.400000000000e-01, -1.000000000000e-02, 1.000000000000e-02
1866, 3.500000000000e-01, -1.000000000000e-02, 1.000000000000e-02
1867, 3.600000000000e-01, -1.000000000000e-02, 1.000000000000e-02
1868, 3.700000000000e-01, -1.000000000000e-02, 1.000000000000e-02
1869, 3.800000000000e-01, -1.000000000000e-02, 1.000000000000e-02
1870, 3.900000000000e-01, -1.000000000000e-02, 1.000000000000e-02
1871, 4.000000000000e-01, -1.000000000000e-02, 1.000000000000e-02
1872, 4.100000000000e-01, -1.000000000000e-02, 1.000000000000e-02
1873, 4.200000000000e-01, -1.000000000000e-02, 1.000000000000e-02
1874, 4.300000000000e-01, -1.000000000000e-02, 1.000000000000e-02
1875, 4.400000000000e-01, -1.000000000000e-02, 1.000000000000e-02
1876, 4.500000000000e-01, -1.000000000000e-02, 1.000000000000e-02
1877, 4.600000000000e-01, -1.000000000000e-02, 1.000000000000e-02
1878, 4.700000000000e-01, -1.000000000000e-02, 1.000000000000e-02
1879, 4.800000000000e-01, -1.000000000000e-02, 1.000000000000e-02
1880, 4.900000000000e-01, -1.000000000000e-02, 1.000000000000e-02
1881, 5.000000000000e-01, -1.000000000000e-02, 1.000000000000e-02
1882, 5.100000000000e-01, -1.000000000000e-02, 1.000000000000e-02
1883, 5.200000000000e-01, -1.000000000000e-02, 1.000000000000e-02
1884, 5.300000000000e-01, -1.000000000000e-02, 1.000000000000e-02
1885, 5.400000000000e-01, -1.000000000000e-02, 1.000000000000e-02
1886, 5.500000000000e-01, -1.000000000000e-02, 1.000000000000e-02
1887, 5.600000000000e-01, -1.000000000000e-02, 1.000000000000e-02
1888, 5.700000000000e-01, -1.000000000000e-02, 1.000000000000e-02
1889, 5.800000000000e-01, -1.000000000000e-02, 1.000000000000e-02
1890, 5.900000000000e-01, -1.000000000000e-02, 1.000000000000e-02
1891, 6.000000000000e-01, -1.000000000000e-02, 1.000000000000e-02
1892, 0.000000000000e+00, 0.000000000000e+00, 1.000000000000e-02
1893, 1.000000000000e-02, 0.000000000000e+00, 1.000000000000e-02
1894, 2.000000000000e-02, 0.000000000000e+00, 1.000000000000e-02
1895, 3.000000000000e-02, 0.000000000000e+00, 1.000000000000e-02
1896, 4.000000000000e-02, 0.000000000000e+00, 1.000000000000e-02
1897, 5.000000000000e-02, 0.000000000000e+00, 1.000000000000e-02
1898, 6.000000000000e-02, 0.000000000000e+00, 1.000000000000e-02
1899, 7.000000000000e-02, 0.000000000000e+00, 1.000000000000e-02
1900, 8.000000000000e-02, 0.000000000000e+00, 1.000000000000e-02
1901, 9.000000000000e-02, 0.000000000000e+00, 1.000000000000e-02
1902, 1.000000000000e-01, 0.000000000000e+00, 1.000000000000e-02
1903, 1.100000000000e-01, 0.000000000000e+00, 1.000000000000e-02
1904, 1.200000000000e-01, 0.000000000000e+00, 1.000000000000e-02
1905, 1.300000000000e-01, 0.000000000000e+00, 1.000000000000e-02
1906, 1.400000000000e-01, 0.000000000000e+00, 1.000000000000e-02
1907, 1.500000000000e-01, 0.000000000000e+00, 1.000000000000e-02
1908, 1.600000000000e-01, 0.000000000000e+00, 1.000000000000e-02
1909, 1.700000000000e-01, 0.000000000000e+00, 1.000000000000e-02
1910, 1.800000000000e-01, 0.000000000000e+00, 1.000000000000e-02
1911, 1.900000000000e-01, 0.000000000000e+00, 1.000000000000e-02
1912, 2.000000000000e-01, 0.000000000000e+00, 1.000000000000e-02
1913, 2.100000000000e-01, 0.000000000000e+00, 1.000000000000e-02
1914, 2.200000000000e-01, 0.000000000000e+00, 1.000000000000e-02
1915, 2.300000000000e-01, 0.000000000000e+00, 1.000000000000e-02
1916, 2.400000000000e-01, 0.000000000000e+00, 1.000000000000e-02
1917, 2.500000000000e-01, 0.000000000000e+00, 1.000000000000e-02
1918, 2.600000000000e-01, 0.000000000000e+00, 1.000000000000e-02
1919, 2.700000000000e-01, 0.000000000000e+00, 1.000000000000e-02
1920, 2.800000000000e-01, 0.000000000000e+00, 1.000000000000e-02
1921, 2.900000000000e-01, 0.000000000000e+00, 1.000000000000e-02
1922, 3.000000000000e-01, 0.000000000000e+00, 1.000000000000e-02
1923, 3.100000000000e-01, 0.000000000000e+00, 1.000000000000e-02
1924, 3.200000000000e-01, 0.000000000000e+00, 1.000000000000e-02
1925, 3.300000000000e-01, 0.000000000000e+00, 1.000000000000e-02
1926, 3.400000000000e-01, 0.000000000000e+00, 1.000000000000e-02
1927, 3.500000000000e-01, 0.000000000000e+00, 1.000000000000e-02
1928, 3.600000000000e-01, 0.000000000000e+00, 1.000000000000e-02
1929, 3.700000000000e-01, 0.000000000000e+00, 1.000000000000e-02
1930, 3.800000000000e-01, 0.000000000000e+00, 1.000000000000e-02
1931, 3.900000000000e-01, 0.000000000000e+00, 1.000000000000e-02
1932, 4.000000000000e-01, 0.000000000000e+00, 1.000000000000e-02
1933, 4.100000000000e-01, 0.000000000000e+00, 1.000000000000e-02
1934, 4.200000000000e-01, 0.000000000000e+00, 1.000000000000e-02
1935, 4.300000000000e-01, 0.000000000000e+00, 1.000000000000e-02
1936, 4.400000000000e-01, 0.000000000000e+00, 1.000000000000e-02
1937, 4.500000000000e-01, 0.000000000000e+00, 1.000000000000e-02
1938, 4.600000000000e-01, 0.000000000000e+00, 1.000000000000e-02
1939, 4.700000000000e-01, 0.000000000000e+00, 1.000000000000e-02
1940, 4.800000000000e-01, 0.000000000000e+00, 1.000000000000e-02
1941, 4.900000000000e-01, 0.000000000000e+00, 1.000000000000e-02
1942, 5.000000000000e-01, 0.000000000000e+00, 1.000000000000e-02
1943, 5.100000000000e-01, 0.000000000000e+00, 1.000000000000e-02
1944, 5.200000000000e-01, 0.000000000000e+00, 1.000000000000e-02
1945, 5.300000000000e-01, 0.000000000000e+00, 1.000000000000e-02
1946, 5.400000000000e-01, 0.000000000000e+00, 1.000000000000e-02
1947, 5.500000000000e-01, 0.000000000000e+00, 1.000000000000e-02
1948, 5.600000000000e-01, 0.000000000000e+00, 1.000000000000e-02
1949, 5.700000000000e-01, 0.000000000000e+00, 1.000000000000e-02
1950, 5.800000000000e-01, 0.000000000000e+00, 1.000000000000e-02
1951, 5.900000000000e-01, 0.000000000000e+00, 1.000000000000e-02
1952, 6.000000000000e-01, 0.000000000000e+00, 1.000000000000e-02
1953, 0.000000000000e+00, 1.000000000000e-02, 1.000000000000e-02
1954, 1.000000000000e-02, 1.000000000000e-02, 1.000000000000e-02
1955, 2.000000000000e-02, 1.000000000000e-02, 1.000000000000e-02
1956, 3.000000000000e-02, 1.000000000000e-02, 1.000000000000e-02
1957, 4.000000000000e-02, 1.000000000000e-02, 1.000000000000e-02
1958, 5.000000000000e-02, 1.000000000000e-02, 1.000000000000e-02
1959, 6.000000000000e-02, 1.000000000000e-02, 1.000000000000e-02
1960, 7.000000000000e-02, 1.000000000000e-02, 1.000000000000e-02
1961, 8.000000000000e-02, 1.000000000000e-02, 1.000000000000e-02
1962, 9.000000000000e-02, 1.000000000000e-02, 1.000000000000e-02
1963, 1.000000000000e-01, 1.000000000000e-02, 1.000000000000e-02
1964, 1.100000000000e-01, 1.000000000000e-02, 1.000000000000e-02
1965, 1.200000000000e-01, 1.000000000000e-02, 1.000000000000e-02
1966, 1.300000000000e-01, 1.000000000000e-02, 1.000000000000e-02
1967, 1.400000000000e-01, 1.000000000000e-02, 1.000000000000e-02
1968, 1.500000000000e-01, 1.000000000000e-02, 1.000000000000e-02
1969, 1.600000000000e-01, 1.000000000000e-02, 1.000000000000e-02
1970, 1.700000000000e-01, 1.000000000000e-02, 1.000000000000e-02
1971, 1.800000000000e-01, 1.000000000000e-02, 1.000000000000e-02
1972, 1.900000000000e-01, 1.000000000000e-02, 1.000000000000e-02
1973, 2.000000000000e-01, 1.000000000000e-02, 1.000000000000e-02
1974, 2.100000000000e-01, 1.000000000000e-02, 1.000000000000e-02
1975, 2.200000000000e-01, 1.000000000000e-02, 1.000000000000e-02
1976, 2.300000000000e-01, 1.000000000000e-02, 1.000000000000e-02
1977, 2.400000000000e-01, 1.000000000000e-02, 1.000000000000e-02
1978, 2.500000000000e-01, 1.000000000000e-02, 1.000000000000e-02
1979, 2.600000000000e-01, 1.000000000000e-02, 1.000000000000e-02
1980, 2.700000000000e-01, 1.000000000000e-02, 1.000000000000e-02
1981, 2.800000000000e-01, 1.000000000000e-02, 1.000000000000e-02
1982, 2.900000000000e-01, 1.000000000000e-02, 1.000000000000e-02
1983, 3.000000000000e-01, 1.000000000000e-02, 1.000000000000e-02
1984, 3.100000000000e-01, 1.000000000000e-02, 1.000000000000e-02
1985, 3.200000000000e-01, 1.000000000000e-02, 1.000000000000e-02
1986, 3.300000000000e-01, 1.000000000000e-02, 1.000000000000e-02
1987, 3.400000000000e-01, 1.000000000000e-02, 1.000000000000e-02
1988, 3.500000000000e-01, 1.000000000000e-02, 1.000000000000e-02
1989, 3.600000000000e-01, 1.000000000000e-02, 1.000000000000e-02
1990, 3.700000000000e-01, 1.000000000000e-02, 1.000000000000e-02
1991, 3.800000000000e-01, 1.000000000000e-02, 1.000000000000e-02
1992, 3.900000000000e-01, 1.000000000000e-02, 1.000000000000e-02
1993, 4.000000000000e-01, 1.000000000000e-02, 1.000000000000e-02
1994, 4.100000000000e-01, 1.000000000000e-02, 1.000000000000e-02
1995, 4.200000000000e-01, 1.000000000000e-02, 1.000000000000e-02
1996, 4.300000000000e-01, 1.000000000000e-02, 1.000000000000e-02
1997, 4.400000000000e-01, 1.000000000000e-02, 1.000000000000e-02
1998, 4.500000000000e-01, 1.000000000000e-02, 1.000000000000e-02
1999, 4.600000000000e-01, 1.000000000000e-02, 1.000000000000e-02
2000, 4.700000000000e-01, 1.000000000000e-02, 1.000000000000e-02
2001, 4.800000000000e-01, 1.000000000000e-02, 1.000000000000e-02
2002, 4.900000000000e-01, 1.000000000000e-02, 1.000000000000e-02
2003, 5.000000000000e-01, 1.000000000000e-02, 1.000000000000e-02
2004, 5.100000000000e-01, 1.000000000000e-02, 1.000000000000e-02
2005, 5.200000000000e-01, 1.000000000000e-02, 1.000000000000e-02
2006, 5.300000000000e-01, 1.000000000000e-02, 1.000000000000e-02
2007, 5.400000000000e-01, 1.000000000000e-02, 1.000000000000e-02
2008, 5.500000000000e-01, 1.000000000000e-02, 1.000000000000e-02
2009, 5.600000000000e-01, 1.000000000000e-02, 1.000000000000e-02
2010, 5.700000000000e-01, 1.000000000000e-02, 1.000000000000e-02
2011, 5.800000000000e-01, 1.000000000000e-02, 1.000000000000e-02
2012, 5.900000000000e-01, 1.000000000000e-02, 1.000000000000e-02
2013, 6.000000000000e-01, 1.000000000000e-02, 1.000000000000e-02
2014, 0.000000000000e+00, 2.000000000000e-02, 1.000000000000e-02
2015, 1.000000000000e-02, 2.000000000000e-02, 1.000000000000e-02
2016, 2.000000000000e-02, 2.000000000000e-02, 1.000000000000e-02
2017, 3.000000000000e-02, 2.000000000000e-02, 1.000000000000e-02
2018, 4.000000000000e-02, 2.000000000000e-02, 1.000000000000e-02
2019, 5.000000000000e-02, 2.000000000000e-02, 1.000000000000e-02
2020, 6.000000000000e-02, 2.000000000000e-02, 1.000000000000e-02
2021, 7.000000000000e-02, 2.000000000000e-02, 1.000000000000e-02
2022, 8.000000000000e-02, 2.000000000000e-02, 1.000000000000e-02
2023, 9.000000000000e-02, 2.000000000000e-02, 1.000000000000e-02
2024, 1.000000000000e-01, 2.000000000000e-02, 1.000000000000e-02
2025, 1.100000000000e-01, 2.000000000000e-02, 1.000000000000e-02
2026, 1.200000000000e-01, 2.000000000000e-02, 1.000000000000e-02
2027, 1.300000000000e-01, 2.000000000000e-02, 1.000000000000e-02
2028, 1.400000000000e-01, 2.000000000000e-02, 1.000000000000e-02
2029, 1.500000000000e-01, 2.000000000000e-02, 1.000000000000e-02
2030, 1.600000000000e-01, 2.000000000000e-02, 1.000000000000e-02
2031, 1.700000000000e-01, 2.000000000000e-02, 1.000000000000e-02
2032, 1.800000000000e-01, 2.000000000000e-02, 1.000000000000e-02
2033, 1.900000000000e-01, 2.000000000000e-02, 1.000000000000e-02
2034, 2.000000000000e-01, 2.000000000000e-02, 1.000000000000e-02
2035, 2.100000000000e-01, 2.000000000000e-02, 1.000000000000e-02
2036, 2.200000000000e-01, 2.000000000000e-02, 1.000000000000e-02
2037, 2.300000000000e-01, 2.000000000000e-02, 1.000000000000e-02
2038, 2.400000000000e-01, 2.000000000000e-02, 1.000000000000e-02
2039, 2.500000000000e-01, 2.000000000000e-02, 1.000000000000e-02
2040, 2.600000000000e-01, 2.000000000000e-02, 1.000000000000e-02
2041, 2.700000000000e-01, 2.000000000000e-02, 1.000000000000e-02
2042, 2.800000000000e-01, 2.000000000000e-02, 1.000000000000e-02
2043, 2.900000000000e-01, 2.000000000000e-02, 1.000000000000e-02
2044, 3.000000000000e-01, 2.000000000000e-02, 1.000000000000e-02
2045, 3.100000000000e-01, 2.000000000000e-02, 1.000000000000e-02
2046, 3.200000000000e-01, 2.000000000000e-02, 1.000000000000e-02
2047, 3.300000000000e-01, 2.000000000000e-02, 1.000000000000e-02
2048, 3.400000000000e-01, 2.000000000000e-02, 1.000000000000e-02
2049, 3.500000000000e-01, 2.000000000000e-02, 1.000000000000e-02
2050, 3.600000000000e-01, 2.000000000000e-02, 1.000000000000e-02
2051, 3.700000000000e-01, 2.000000000000e-02, 1.000000000000e-02
2052, 3.800000000000e-01, 2.000000000000e-02, 1.000000000000e-02
2053, 3.900000000000e-01, 2.000000000000e-02, 1.000000000000e-02
2054, 4.000000000000e-01, 2.000000000000e-02, 1.000000000000e-02
2055, 4.100000000000e-01, 2.000000000000e-02, 1.000000000000e-02
2056, 4.200000000000e-01, 2.000000000000e-02, 1.000000000000e-02
2057, 4.300000000000e-01, 2.000000000000e-02, 1.000000000000e-02
2058, 4.400000000000e-01, 2.000000000000e-02, 1.000000000000e-02
2059, 4.500000000000e-01, 2.000000000000e-02, 1.000000000000e-02
2060, 4.600000000000e-01, 2.000000000000e-02, 1.000000000000e-02
2061, 4.700000000000e-01, 2.000000000000e-02, 1.000000000000e-02
2062, 4.800000000000e-01, 2.000000000000e-02, 1.000000000000e-02
2063, 4.900000000000e-01, 2.000000000000e-02, 1.000000000000e-02
2064, 5.000000000000e-01, 2.000000000000e-02, 1.000000000000e-02
2065, 5.100000000000e-01, 2.000000000000e-02, 1.000000000000e-02
2066, 5.200000000000e-01, 2.000000000000e-02, 1.000000000000e-02
2067, 5.300000000000e-01, 2.000000000000e-02, 1.000000000000e-02
2068, 5.400000000000e-01, 2.000000000000e-02, 1.000000000000e-02
2069, 5.500000000000e-01, 2.000000000000e-02, 1.000000000000e-02
2070, 5.600000000000e-01, 2.000000000000e-02, 1.000000000000e-02
2071, 5.700000000000e-01, 2.000000000000e-02, 1.000000000000e-02
2072, 5.800000000000e-01, 2.000000000000e-02, 1.000000000000e-02
2073, 5.900000000000e-01, 2.000000000000e-02, 1.000000000000e-02
2074, 6.000000000000e-01, 2.000000000000e-02, 1.000000000000e-02
2075, 0.000000000000e+00, 3.000000000000e-02, 1.000000000000e-02
2076, 1.000000000000e-02, 3.000000000000e-02, 1.000000000000e-02
2077, 2.000000000000e-02, 3.000000000000e-02, 1.000000000000e-02
2078, 3.000000000000e-02, 3.000000000000e-02, 1.000000000000e-02
2079, 4.000000000000e-02, 3.000000000000e-02, 1.000000000000e-02
2080, 5.000000000000e-02, 3.000000000000e-02, 1.000000000000e-02
2081, 6.000000000000e-02, 3.000000000000e-02, 1.000000000000e-02
2082, 7.000000000000e-02, 3.000000000000e-02, 1.000000000000e-02
2083, 8.000000000000e-02, 3.000000000000e-02, 1.000000000000e-02
2084, 9.000000000000e-02, 3.000000000000e-02, 1.000000000000e-02
2085, 1.000000000000e-01, 3.000000000000e-02, 1.000000000000e-02
2086, 1.100000000000e-01, 3.000000000000e-02, 1.000000000000e-02
2087, 1.200000000000e-01, 3.000000000000e-02, 1.000000000000e-02
2088, 1.300000000000e-01, 3.000000000000e-02, 1.000000000000e-02
2089, 1.400000000000e-01, 3.000000000000e-02, 1.000000000000e-02
2090, 1.500000000000e-01, 3.000000000000e-02, 1.000000000000e-02
2091, 1.600000000000e-01, 3.000000000000e-02, 1.000000000000e-02
2092, 1.700000000000e-01, 3.000000000000e-02, 1.000000000000e-02
2093, 1.800000000000e-01, 3.000000000000e-02, 1.000000000000e-02
2094, 1.900000000000e-01, 3.000000000000e-02, 1.000000000000e-02
2095, 2.000000000000e-01, 3.000000000000e-02, 1.000000000000e-02
2096, 2.100000000000e-01, 3.000000000000e-02, 1.000000000000e-02
2097, 2.200000000000e-01, 3.000000000000e-02, 1.000000000000e-02
2098, 2.300000000000e-01, 3.000000000000e-02, 1.000000000000e-02
2099, 2.400000000000e-01, 3.000000000000e-02, 1.000000000000e-02
2100, 2.500000000000e-01, 3.000000000000e-02, 1.000000000000e-02
2101, 2.600000000000e-01, 3.000000000000e-02, 1.000000000000e-02
2102, 2.700000000000e-01, 3.000000000000e-02, 1.000000000000e-02
2103, 2.800000000000e-01, 3.000000000000e-02, 1.000000000000e-02
2104, 2.900000000000e-01, 3.000000000000e-02, 1.000000000000e-02
2105, 3.000000000000e-01, 3.000000000000e-02, 1.000000000000e-02
2106, 3.100000000000e-01, 3.000000000000e-02, 1.000000000000e-02
2107, 3.200000000000e-01, 3.000000000000e-02, 1.000000000000e-02
2108, 3.300000000000e-01, 3.000000000000e-02, 1.000000000000e-02
2109, 3.400000000000e-01, 3.000000000000e-02, 1.000000000000e-02
2110, 3.500000000000e-01, 3.000000000000e-02, 1.000000000000e-02
2111, 3.600000000000e-01, 3.000000000000e-02, 1.000000000000e-02
2112, 3.700000000000e-01, 3.000000000000e-02, 1.000000000000e-02
2113, 3.800000000000e-01, 3.000000000000e-02, 1.000000000000e-02
2114, 3.900000000000e-01, 3.000000000000e-02, 1.000000000000e-02
2115, 4.000000000000e-01, 3.000000000000e-02, 1.000000000000e-02
2116, 4.100000000000e-01, 3.000000000000e-02, 1.000000000000e-02
2117, 4.200000000000e-01, 3.000000000000e-02, 1.000000000000e-02
2118, 4.300000000000e-01, 3.000000000000e-02, 1.000000000000e-02
2119, 4.400000000000e-01, 3.000000000000e-02, 1.000000000000e-02
2120, 4.500000000000e-01, 3.000000000000e-02, 1.000000000000e-02
2121, 4.600000000000e-01, 3.000000000000e-02, 1.000000000000e-02
2122, 4.700000000000e-01, 3.000000000000e-02, 1.000000000000e-02
2123, 4.800000000000e-01, 3.000000000000e-02, 1.000000000000e-02
2124, 4.900000000000e-01, 3.000000000000e-02, 1.000000000000e-02
2125, 5.000000000000e-01, 3.000000000000e-02, 1.000000000000e-02
2126, 5.100000000000e-01, 3.000000000000e-02, 1.000000000000e-02
2127, 5.200000000000e-01, 3.000000000000e-02, 1.000000000000e-02
2128, 5.300000000000e-01, 3.000000000000e-02, 1.000000000000e-02
2129, 5.400000000000e-01, 3.000000000000e-02, 1.000000000000e-02
2130, 5.500000000000e-01, 3.000000000000e-02, 1.000000000000e-02
2131, 5.600000000000e-01, 3.000000000000e-02, 1.000000000000e-02
2132, 5.700000000000e-01, 3.000000000000e-02, 1.000000000000e-02
2133, 5.800000000000e-01, 3.000000000000e-02, 1.000000000000e-02
2134, 5.900000000000e-01, 3.000000000000e-02, 1.000000000000e-02
2135, 6.000000000000e-01, 3.000000000000e-02, 1.000000000000e-02
2136, 0.000000000000e+00, 4.000000000000e-02, 1.000000000000e-02
2137, 1.000000000000e-02, 4.000000000000e-02, 1.000000000000e-02
2138, 2.000000000000e-02, 4.000000000000e-02, 1.000000000000e-02
2139, 3.000000000000e-02, 4.000000000000e-02, 1.000000000000e-02
2140, 4.000000000000e-02, 4.000000000000e-02, 1.000000000000e-02
2141, 5.000000000000e-02, 4.000000000000e-02, 1.000000000000e-02
2142, 6.000000000000e-02, 4.000000000000e-02, 1.000000000000e-02
2143, 7.000000000000e-02, 4.000000000000e-02, 1.000000000000e-02
2144, 8.000000000000e-02, 4.000000000000e-02, 1.000000000000e-02
2145, 9.000000000000e-02, 4.000000000000e-02, 1.000000000000e-02
2146, 1.000000000000e-01, 4.000000000000e-02, 1.000000000000e-02
2147, 1.100000000000e-01, 4.000000000000e-02, 1.000000000000e-02
2148, 1.200000000000e-01, 4.000000000000e-02, 1.000000000000e-02
2149, 1.300000000000e-01, 4.000000000000e-02, 1.000000000000e-02
2150, 1.400000000000e-01, 4.000000000000e-02, 1.000000000000e-02
2151, 1.500000000000e-01, 4.000000000000e-02, 1.000000000000e-02
2152, 1.600000000000e-01, 4.000000000000e-02, 1.000000000000e-02
2153, 1.700000000000e-01, 4.000000000000e-02, 1.000000000000e-02
2154, 1.800000000000e-01, 4.000000000000e-02, 1.000000000000e-02
2155, 1.900000000000e-01, 4.000000000000e-02, 1.000000000000e-02
2156, 2.000000000000e-01, 4.000000000000e-02, 1.000000000000e-02
2157, 2.100000000000e-01, 4.000000000000e-02, 1.000000000000e-02
2158, 2.200000000000e-01, 4.000000000000e-02, 1.000000000000e-02
2159, 2.300000000000e-01, 4.000000000000e-02, 1.000000000000e-02
2160, 2.400000000000e-01, 4.000000000000e-02, 1.000000000000e-02
2161, 2.500000000000e-01, 4.000000000000e-02, 1.000000000000e-02
2162, 2.600000000000e-01, 4.000000000000e-02, 1.000000000000e-02
2163, 2.700000000000e-01, 4.000000000000e-02, 1.000000000000e-02
2164, 2.800000000000e-01, 4.000000000000e-02, 1.000000000000e-02
2165, 2.900000000000e-01, 4.000000000000e-02, 1.000000000000e-02
2166, 3.000000000000e-01, 4.000000000000e-02, 1.000000000000e-02
2167, 3.100000000000e-01, 4.000000000000e-02, 1.000000000000e-02
2168, 3.200000000000e-01, 4.000000000000e-02, 1.000000000000e-02
2169, 3.300000000000e-01, 4.000000000000e-02, 1.000000000000e-02
2170, 3.400000000000e-01, 4.000000000000e-02, 1.000000000000e-02
2171, 3.500000000000e-01, 4.000000000000e-02, 1.000000000000e-02
2172, 3.600000000000e-01, 4.000000000000e-02, 1.000000000000e-02
2173, 3.700000000000e-01, 4.000000000000e-02, 1.000000000000e-02
2174, 3.800000000000e-01, 4.000000000000e-02, 1.000000000000e-02
2175, 3.900000000000e-01, 4.000000000000e-02, 1.000000000000e-02
2176, 4.000000000000e-01, 4.000000000000e-02, 1.000000000000e-02
2177, 4.100000000000e-01, 4.000000000000e-02, 1.000000000000e-02
2178, 4.200000000000e-01, 4.000000000000e-02, 1.000000000000e-02
2179, 4.300000000000e-01, 4.000000000000e-02, 1.000000000000e-02
2180, 4.400000000000e-01, 4.000000000000e-02, 1.000000000000e-02
2181, 4.500000000000e-01, 4.000000000000e-02, 1.000000000000e-02
2182, 4.600000000000e-01, 4.000000000000e-02, 1.000000000000e-02
2183, 4.700000000000e-01, 4.000000000000e-02, 1.000000000000e-02
2184, 4.800000000000e-01, 4.000000000000e-02, 1.000000000000e-02
2185, 4.900000000000e-01, 4.000000000000e-02, 1.000000000000e-02
2186, 5.000000000000e-01, 4.000000000000e-02, 1.000000000000e-02
2187, 5.100000000000e-01, 4.000000000000e-02, 1.000000000000e-02
2188, 5.200000000000e-01, 4.000000000000e-02, 1.000000000000e-02
2189, 5.300000000000e-01, 4.000000000000e-02, 1.000000000000e-02
2190, 5.400000000000e-01, 4.000000000000e-02, 1.000000000000e-02
2191, 5.500000000000e-01, 4.000000000000e-02, 1.000000000000e-02
2192, 5.600000000000e-01, 4.000000000000e-02, 1.000000000000e-02
2193, 5.700000000000e-01, 4.000000000000e-02, 1.000000000000e-02
2194, 5.800000000000e-01, 4.000000000000e-02, 1.000000000000e-02
2195, 5.900000000000e-01, 4.000000000000e-02, 1.000000000000e-02
2196, 6.000000000000e-01, 4.000000000000e-02, 1.000000000000e-02
2197, 0.000000000000e+00, -4.000000000000e-02, 2.000000000000e-02
2198, 1.000000000000e-02, -4.000000000000e-02, 2.000000000000e-02
2199, 2.000000000000e-02, -4.000000000000e-02, 2.000000000000e-02
2200, 3.000000000000e-02, -4.000000000000e-02, 2.000000000000e-02
2201, 4.000000000000e-02, -4.000000000000e-02, 2.000000000000e-02
2202, 5.000000000000e-02, -4.000000000000e-02, 2.000000000000e-02
2203, 6.000000000000e-02, -4.000000000000e-02, 2.000000000000e-02
2204, 7.000000000000e-02, -4.000000000000e-02, 2.000000000000e-02
2205, 8.000000000000e-02, -4.000000000000e-02, 2.000000000000e-02
2206, 9.000000000000e-02, -4.000000000000e-02, 2.000000000000e-02
2207, 1.000000000000e-01, -4.000000000000e-02, 2.000000000000e-02
2208, 1.100000000000e-01, -4.000000000000e-02, 2.000000000000e-02
2209, 1.200000000000e-01, -4.000000000000e-02, 2.000000000000e-02
2210, 1.300000000000e-01, -4.000000000000e-02, 2.000000000000e-02
2211, 1.400000000000e-01, -4.000000000000e-02, 2.000000000000e-02
2212, 1.500000000000e-01, -4.000000000000e-02, 2.000000000000e-02
2213, 1.600000000000e-01, -4.000000000000e-02, 2.000000000000e-02
2214, 1.700000000000e-01, -4.000000000000e-02, 2.000000000000e-02
2215, 1.800000000000e-01, -4.000000000000e-02, 2.000000000000e-02
2216, 1.900000000000e-01, -4.000000000000e-02, 2.000000000000e-02
2217, 2.000000000000e-01, -4.000000000000e-02, 2.000000000000e-02
2218, 2.100000000000e-01, -4.000000000000e-02, 2.000000000000e-02
2219, 2.200000000000e-01, -4.000000000000e-02, 2.000000000000e-02
2220, 2.300000000000e-01, -4.000000000000e-02, 2.000000000000e-02
2221, 2.400000000000e-01, -4.000000000000e-02, 2.000000000000e-02
2222, 2.500000000000e-01, -4.000000000000e-02, 2.000000000000e-02
2223, 2.600000000000e-01, -4.000000000000e-02, 2.000000000000e-02
2224, 2.700000000000e-01, -4.000000000000e-02, 2.000000000000e-02
2225, 2.800000000000e-01, -4.000000000000e-02, 2.000000000000e-02
2226, 2.900000000000e-01, -4.000000000000e-02, 2.000000000000e-02
2227, 3.000000000000e-01, -4.000000000000e-02, 2.000000000000e-02
2228, 3.100000000000e-01, -4.000000000000e-02, 2.000000000000e-02
2229, 3.200000000000e-01, -4.000000000000e-02, 2.000000000000e-02
2230, 3.300000000000e-01, -4.000000000000e-02, 2.000000000000e-02
2231, 3.400000000000e-01, -4.000000000000e-02, 2.000000000000e-02
2232, 3.500000000000e-01, -4.000000000000e-02, 2.000000000000e-02
2233, 3.600000000000e-01, -4.000000000000e-02, 2.000000000000e-02
2234, 3.700000000000e-01, -4.000000000000e-02, 2.000000000000e-02
2235, 3.800000000000e-01, -4.000000000000e-02, 2.000000000000e-02
2236, 3.900000000000e-01, -4.000000000000e-02, 2.000000000000e-02
2237, 4.000000000000e-01, -4.000000000000e-02, 2.000000000000e-02
2238, 4.100000000000e-01, -4.000000000000e-02, 2.000000000000e-02
2239, 4.200000000000e-01, -4.000000000000e-02, 2.000000000000e-02
2240, 4.300000000000e-01, -4.000000000000e-02, 2.000000000000e-02
2241, 4.400000000000e-01, -4.000000000000e-02, 2.000000000000e-02
2242, 4.500000000000e-01, -4.000000000000e-02, 2.000000000000e-02
2243, 4.600000000000e-01, -4.000000000000e-02, 2.000000000000e-02
2244, 4.700000000000e-01, -4.000000000000e-02, 2.000000000000e-02
2245, 4.800000000000e-01, -4.000000000000e-02, 2.000000000000e-02
2246, 4.900000000000e-01, -4.000000000000e-02, 2.000000000000e-02
2247, 5.000000000000e-01, -4.000000000000e-02, 2.000000000000e-02
2248, 5.100000000000e-01, -4.000000000000e-02, 2.000000000000e-02
2249, 5.200000000000e-01, -4.000000000000e-02, 2.000000000000e-02
2250, 5.300000000000e-01, -4.000000000000e-02, 2.000000000000e-02
2251, 5.400000000000e-01, -4.000000000000e-02, 2.000000000000e-02
2252, 5.500000000000e-01, -4.000000000000e-02, 2.000000000000e-02
2253, 5.600000000000e-01, -4.000000000000e-02, 2.000000000000e-02
2254, 5.700000000000e-01, -4.000000000000e-02, 2.000000000000e-02
2255, 5.800000000000e-01, -4.000000000000e-02, 2.000000000000e-02
2256, 5.900000000000e-01, -4.000000000000e-02, 2.000000000000e-02
2257, 6.000000000000e-01, -4.000000000000e-02, 2.000000000000e-02
2258, 0.000000000000e+00, -3.000000000000e-02, 2.000000000000e-02
2259, 1.000000000000e-02, -3.000000000000e-02, 2.000000000000e-02
2260, 2.000000000000e-02, -3.000000000000e-02, 2.000000000000e-02
2261, 3.000000000000e-02, -3.000000000000e-02, 2.000000000000e-02
2262, 4.000000000000e-02, -3.000000000000e-02, 2.000000000000e-02
2263, 5.000000000000e-02, -3.000000000000e-02, 2.000000000000e-02
2264, 6.000000000000e-02, -3.000000000000e-02, 2.000000000000e-02
2265, 7.000000000000e-02, -3.000000000000e-02, 2.000000000000e-02
2266, 8.000000000000e-02, -3.000000000000e-02, 2.000000000000e-02
2267, 9.000000000000e-02, -3.000000000000e-02, 2.000000000000e-02
2268, 1.000000000000e-01, -3.000000000000e-02, 2.000000000000e-02
2269, 1.100000000000e-01, -3.000000000000e-02, 2.000000000000e-02
2270, 1.200000000000e-01, -3.000000000000e-02, 2.000000000000e-02
2271, 1.300000000000e-01, -3.000000000000e-02, 2.000000000000e-02
2272, 1.400000000000e-01, -3.000000000000e-02, 2.000000000000e-02
2273, 1.500000000000e-01, -3.000000000000e-02, 2.000000000000e-02
2274, 1.600000000000e-01, -3.000000000000e-02, 2.000000000000e-02
2275, 1.700000000000e-01, -3.000000000000e-02, 2.000000000000e-02
2276, 1.800000000000e-01, -3.000000000000e-02, 2.000000000000e-02
2277, 1.900000000000e-01, -3.000000000000e-02, 2.000000000000e-02
2278, 2.000000000000e-01, -3.000000000000e-02, 2.000000000000e-02
2279, 2.100000000000e-01, -3.000000000000e-02, 2.000000000000e-02
2280, 2.200000000000e-01, -3.000000000000e-02, 2.000000000000e-02
2281, 2.300000000000e-01, -3.000000000000e-02, 2.000000000000e-02
2282, 2.400000000000e-01, -3.000000000000e-02, 2.000000000000e-02
2283, 2.500000000000e-01, -3.000000000000e-02, 2.000000000000e-02
2284, 2.600000000000e-01, -3.000000000000e-02, 2.000000000000e-02
2285, 2.700000000000e-01, -3.000000000000e-02, 2.000000000000e-02
2286, 2.800000000000e-01, -3.000000000000e-02, 2.000000000000e-02
2287, 2.900000000000e-01, -3.000000000000e-02, 2.000000000000e-02
2288, 3.000000000000e-01, -3.000000000000e-02, 2.000000000000e-02
2289, 3.100000000000e-01, -3.000000000000e-02, 2.000000000000e-02
2290, 3.200000000000e-01, -3.000000000000e-02, 2.000000000000e-02
2291, 3.300000000000e-01, -3.000000000000e-02, 2.000000000000e-02
2292, 3.400000000000e-01, -3.000000000000e-02, 2.000000000000e-02
2293, 3.500000000000e-01, -3.000000000000e-02, 2.000000000000e-02
2294, 3.600000000000e-01, -3.000000000000e-02, 2.000000000000e-02
2295, 3.700000000000e-01, -3.000000000000e-02, 2.000000000000e-02
2296, 3.800000000000e-01, -3.000000000000e-02, 2.000000000000e-02
2297, 3.900000000000e-01, -3.000000000000e-02, 2.000000000000e-02
2298, 4.000000000000e-01, -3.000000000000e-02, 2.000000000000e-02
2299, 4.100000000000e-01, -3.000000000000e-02, 2.000000000000e-02
2300, 4.200000000000e-01, -3.000000000000e-02, 2.000000000000e-02
2301, 4.300000000000e-01, -3.000000000000e-02, 2.000000000000e-02
2302, 4.400000000000e-01, -3.000000000000e-02, 2.000000000000e-02
2303, 4.500000000000e-01, -3.000000000000e-02, 2.000000000000e-02
2304, 4.600000000000e-01, -3.000000000000e-02, 2.000000000000e-02
2305, 4.700000000000e-01, -3.000000000000e-02, 2.000000000000e-02
2306, 4.800000000000e-01, -3.000000000000e-02, 2.000000000000e-02
2307, 4.900000000000e-01, -3.000000000000e-02, 2.000000000000e-02
2308, 5.000000000000e-01, -3.000000000000e-02, 2.000000000000e-02
2309, 5.100000000000e-01, -3.000000000000e-02, 2.000000000000e-02
2310, 5.200000000000e-01, -3.000000000000e-02, 2.000000000000e-02
2311, 5.300000000000e-01, -3.000000000000e-02, 2.000000000000e-02
2312, 5.400000000000e-01, -3.000000000000e-02, 2.000000000000e-02
2313, 5.500000000000e-01, -3.000000000000e-02, 2.000000000000e-02
2314, 5.600000000000e-01, -3.000000000000e-02, 2.000000000000e-02
2315, 5.700000000000e-01, -3.000000000000e-02, 2.000000000000e-02
2316, 5.800000000000e-01, -3.000000000000e-02, 2.000000000000e-02
2317, 5.900000000000e-01, -3.000000000000e-02, 2.000000000000e-02
2318, 6.000000000000e-01, -3.000000000000e-02, 2.000000000000e-02
2319, 0.000000000000e+00, -2.000000000000e-02, 2.000000000000e-02
2320, 1.000000000000e-02, -2.000000000000e-02, 2.000000000000e-02
2321, 2.000000000000e-02, -2.000000000000e-02, 2.000000000000e-02
2322, 3.000000000000e-02, -2.000000000000e-02, 2.000000000000e-02
2323, 4.000000000000e-02, -2.000000000000e-02, 2.000000000000e-02
2324, 5.000000000000e-02, -2.000000000000e-02, 2.000000000000e-02
2325, 6.000000000000e-02, -2.000000000000e-02, 2.000000000000e-02
2326, 7.000000000000e-02, -2.000000000000e-02, 2.000000000000e-02
2327, 8.000000000000e-02, -2.000000000000e-02, 2.000000000000e-02
2328, 9.000000000000e-02, -2.000000000000e-02, 2.000000000000e-02
2329, 1.000000000000e-01, -2.000000000000e-02, 2.000000000000e-02
2330, 1.100000000000e-01, -2.000000000000e-02, 2.000000000000e-02
2331, 1.200000000000e-01, -2.000000000000e-02, 2.000000000000e-02
2332, 1.300000000000e-01, -2.000000000000e-02, 2.000000000000e-02
2333, 1.400000000000e-01, -2.000000000000e-02, 2.000000000000e-02
2334, 1.500000000000e-01, -2.000000000000e-02, 2.000000000000e-02
2335, 1.600000000000e-01, -2.000000000000e-02, 2.000000000000e-02
2336, 1.700000000000e-01, -2.000000000000e-02, 2.000000000000e-02
2337, 1.800000000000e-01, -2.000000000000e-02, 2.000000000000e-02
2338, 1.900000000000e-01, -2.000000000000e-02, 2.000000000000e-02
2339, 2.000000000000e-01, -2.000000000000e-02, 2.000000000000e-02
2340, 2.100000000000e-01, -2.000000000000e-02, 2.000000000000e-02
2341, 2.200000000000e-01, -2.000000000000e-02, 2.000000000000e-02
2342, 2.300000000000e-01, -2.000000000000e-02, 2.000000000000e-02
2343, 2.400000000000e-01, -2.000000000000e-02, 2.000000000000e-02
2344, 2.500000000000e-01, -2.000000000000e-02, 2.000000000000e-02
2345, 2.600000000000e-01, -2.000000000000e-02, 2.000000000000e-02
2346, 2.700000000000e-01, -2.000000000000e-02, 2.000000000000e-02
2347, 2.800000000000e-01, -2.000000000000e-02, 2.000000000000e-02
2348, 2.900000000000e-01, -2.000000000000e-02, 2.000000000000e-02
2349, 3.000000000000e-01, -2.000000000000e-02, 2.000000000000e-02
2350, 3.100000000000e-01, -2.000000000000e-02, 2.000000000000e-02
2351, 3.200000000000e-01, -2.000000000000e-02, 2.000000000000e-02
2352, 3.300000000000e-01, -2.000000000000e-02, 2.000000000000e-02
2353, 3.400000000000e-01, -2.000000000000e-02, 2.000000000000e-02
2354, 3.500000000000e-01, -2.000000000000e-02, 2.000000000000e-02
2355, 3.600000000000e-01, -2.000000000000e-02, 2.000000000000e-02
2356, 3.700000000000e-01, -2.000000000000e-02, 2.000000000000e-02
2357, 3.800000000000e-01, -2.000000000000e-02, 2.000000000000e-02
2358, 3.900000000000e-01, -2.000000000000e-02, 2.000000000000e-02
2359, 4.000000000000e-01, -2.000000000000e-02, 2.000000000000e-02
2360, 4.100000000000e-01, -2.000000000000e-02, 2.000000000000e-02
2361, 4.200000000000e-01, -2.000000000000e-02, 2.000000000000e-02
2362, 4.300000000000e-01, -2.000000000000e-02, 2.000000000000e-02
2363, 4.400000000000e-01, -2.000000000000e-02, 2.000000000000e-02
2364, 4.500000000000e-01, -2.000000000000e-02, 2.000000000000e-02
2365, 4.600000000000e-01, -2.000000000000e-02, 2.000000000000e-02
2366, 4.700000000000e-01, -2.000000000000e-02, 2.000000000000e-02
2367, 4.800000000000e-01, -2.000000000000e-02, 2.000000000000e-02
2368, 4.900000000000e-01, -2.000000000000e-02, 2.000000000000e-02
2369, 5.000000000000e-01, -2.000000000000e-02, 2.000000000000e-02
2370, 5.100000000000e-01, -2.000000000000e-02, 2.000000000000e-02
2371, 5.200000000000e-01, -2.000000000000e-02, 2.000000000000e-02
2372, 5.300000000000e-01, -2.000000000000e-02, 2.000000000000e-02
2373, 5.400000000000e-01, -2.000000000000e-02, 2.000000000000e-02
2374, 5.500000000000e-01, -2.000000000000e-02, 2.000000000000e-02
2375, 5.600000000000e-01, -2.000000000000e-02, 2.000000000000e-02
2376, 5.700000000000e-01, -2.000000000000e-02, 2.000000000000e-02
2377, 5.800000000000e-01, -2.000000000000e-02, 2.000000000000e-02
2378, 5.900000000000e-01, -2.000000000000e-02, 2.000000000000e-02
2379, 6.000000000000e-01, -2.000000000000e-02, 2.000000000000e-02
2380, 0.000000000000e+00, -1.000000000000e-02, 2.000000000000e-02
2381, 1.000000000000e-02, -1.000000000000e-02, 2.000000000000e-02
2382, 2.000000000000e-02, -1.000000000000e-02, 2.000000000000e-02
2383, 3.000000000000e-02, -1.000000000000e-02, 2.000000000000e-02
2384, 4.000000000000e-02, -1.000000000000e-02, 2.000000000000e-02
2385, 5.000000000000e-02, -1.000000000000e-02, 2.000000000000e-02
2386, 6.000000000000e-02, -1.000000000000e-02, 2.000000000000e-02
2387, 7.000000000000e-02, -1.000000000000e-02, 2.000000000000e-02
2388, 8.000000000000e-02, -1.000000000000e-02, 2.000000000000e-02
2389, 9.000000000000e-02, -1.000000000000e-02, 2.000000000000e-02
2390, 1.000000000000e-01, -1.000000000000e-02, 2.000000000000e-02
2391, 1.100000000000e-01, -1.000000000000e-02, 2.000000000000e-02
2392, 1.200000000000e-01, -1.000000000000e-02, 2.000000000000e-02
2393, 1.300000000000e-01, -1.000000000000e-02, 2.000000000000e-02
2394, 1.400000000000e-01, -1.000000000000e-02, 2.000000000000e-02
2395, 1.500000000000e-01, -1.000000000000e-02, 2.000000000000e-02
2396, 1.600000000000e-01, -1.000000000000e-02, 2.000000000000e-02
2397, 1.700000000000e-01, -1.000000000000e-02, 2.000000000000e-02
2398, 1.800000000000e-01, -1.000000000000e-02, 2.000000000000e-02
2399, 1.900000000000e-01, -1.000000000000e-02, 2.000000000000e-02
2400, 2.000000000000e-01, -1.000000000000e-02, 2.000000000000e-02
2401, 2.100000000000e-01, -1.000000000000e-02, 2.000000000000e-02
2402, 2.200000000000e-01, -1.000000000000e-02, 2.000000000000e-02
2403, 2.300000000000e-01, -1.000000000000e-02, 2.000000000000e-02
2404, 2.400000000000e-01, -1.000000000000e-02, 2.000000000000e-02
2405, 2.500000000000e-01, -1.000000000000e-02, 2.000000000000e-02
2406, 2.600000000000e-01, -1.000000000000e-02, 2.000000000000e-02
2407, 2.700000000000e-01, -1.000000000000e-02, 2.000000000000e-02
2408, 2.800000000000e-01, -1.000000000000e-02, 2.000000000000e-02
2409, 2.900000000000e-01, -1.000000000000e-02, 2.000000000000e-02
2410, 3.000000000000e-01, -1.000000000000e-02, 2.000000000000e-02
2411, 3.100000000000e-01, -1.000000000000e-02, 2.000000000000e-02
2412, 3.200000000000e-01, -1.000000000000e-02, 2.000000000000e-02
2413, 3.300000000000e-01, -1.000000000000e-02, 2.000000000000e-02
2414, 3.400000000000e-01, -1.000000000000e-02, 2.000000000000e-02
2415, 3.500000000000e-01, -1.000000000000e-02, 2.000000000000e-02
2416, 3.600000000000e-01, -1.000000000000e-02, 2.000000000000e-02
2417, 3.700000000000e-01, -1.000000000000e-02, 2.000000000000e-02
2418, 3.800000000000e-01, -1.000000000000e-02, 2.000000000000e-02
2419, 3.900000000000e-01, -1.000000000000e-02, 2.000000000000e-02
2420, 4.000000000000e-01, -1.000000000000e-02, 2.000000000000e-02
2421, 4.100000000000e-01, -1.000000000000e-02, 2.000000000000e-02
2422, 4.200000000000e-01, -1.000000000000e-02, 2.000000000000e-02
2423, 4.300000000000e-01, -1.000000000000e-02, 2.000000000000e-02
2424, 4.400000000000e-01, -1.000000000000e-02, 2.000000000000e-02
2425, 4.500000000000e-01, -1.000000000000e-02, 2.000000000000e-02
2426, 4.600000000000e-01, -1.000000000000e-02, 2.000000000000e-02
2427, 4.700000000000e-01, -1.000000000000e-02, 2.000000000000e-02
2428, 4.800000000000e-01, -1.000000000000e-02, 2.000000000000e-02
2429, 4.900000000000e-01, -1.000000000000e-02, 2.000000000000e-02
2430, 5.000000000000e-01, -1.000000000000e-02, 2.000000000000e-02
2431, 5.100000000000e-01, -1.000000000000e-02, 2.000000000000e-02
2432, 5.200000000000e-01, -1.000000000000e-02, 2.000000000000e-02
2433, 5.300000000000e-01, -1.000000000000e-02, 2.000000000000e-02
2434, 5.400000000000e-01, -1.000000000000e-02, 2.000000000000e-02
2435, 5.500000000000e-01, -1.000000000000e-02, 2.000000000000e-02
2436, 5.600000000000e-01, -1.000000000000e-02, 2.000000000000e-02
2437, 5.700000000000e-01, -1.000000000000e-02, 2.000000000000e-02
2438, 5.800000000000e-01, -1.000000000000e-02, 2.000000000000e-02
2439, 5.900000000000e-01, -1.000000000000e-02, 2.000000000000e-02
2440, 6.000000000000e-01, -1.000000000000e-02, 2.000000000000e-02
2441, 0.000000000000e+00, 0.000000000000e+00, 2.000000000000e-02
2442, 1.000000000000e-02, 0.000000000000e+00, 2.000000000000e-02
2443, 2.000000000000e-02, 0.000000000000e+00, 2.000000000000e-02
2444, 3.000000000000e-02, 0.000000000000e+00, 2.000000000000e-02
2445, 4.000000000000e-02, 0.000000000000e+00, 2.000000000000e-02
2446, 5.000000000000e-02, 0.000000000000e+00, 2.000000000000e-02
2447, 6.000000000000e-02, 0.000000000000e+00, 2.000000000000e-02
2448, 7.000000000000e-02, 0.000000000000e+00, 2.000000000000e-02
2449, 8.000000000000e-02, 0.000000000000e+00, 2.000000000000e-02
2450, 9.000000000000e-02, 0.000000000000e+00, 2.000000000000e-02
2451, 1.000000000000e-01, 0.000000000000e+00, 2.000000000000e-02
2452, 1.100000000000e-01, 0.000000000000e+00, 2.000000000000e-02
2453, 1.200000000000e-01, 0.000000000000e+00, 2.000000000000e-02
2454, 1.300000000000e-01, 0.000000000000e+00, 2.000000000000e-02
2455, 1.400000000000e-01, 0.000000000000e+00, 2.000000000000e-02
2456, 1.500000000000e-01, 0.000000000000e+00, 2.000000000000e-02
2457, 1.600000000000e-01, 0.000000000000e+00, 2.000000000000e-02
2458, 1.700000000000e-01, 0.000000000000e+00, 2.000000000000e-02
2459, 1.800000000000e-01, 0.000000000000e+00, 2.000000000000e-02
2460, 1.900000000000e-01, 0.000000000000e+00, 2.000000000000e-02
2461, 2.000000000000e-01, 0.000000000000e+00, 2.000000000000e-02
2462, 2.100000000000e-01, 0.000000000000e+00, 2.000000000000e-02
2463, 2.200000000000e-01, 0.000000000000e+00, 2.000000000000e-02
2464, 2.300000000000e-01, 0.000000000000e+00, 2.000000000000e-02
2465, 2.400000000000e-01, 0.000000000000e+00, 2.000000000000e-02
2466, 2.500000000000e-01, 0.000000000000e+00, 2.000000000000e-02
2467, 2.600000000000e-01, 0.000000000000e+00, 2.000000000000e-02
2468, 2.700000000000e-01, 0.000000000000e+00, 2.000000000000e-02
2469, 2.800000000000e-01, 0.000000000000e+00, 2.000000000000e-02
2470, 2.900000000000e-01, 0.000000000000e+00, 2.000000000000e-02
2471, 3.000000000000e-01, 0.000000000000e+00, 2.000000000000e-02
2472, 3.100000000000e-01, 0.000000000000e+00, 2.000000000000e-02
2473, 3.200000000000e-01, 0.000000000000e+00, 2.000000000000e-02
2474, 3.300000000000e-01, 0.000000000000e+00, 2.000000000000e-02
2475, 3.400000000000e-01, 0.000000000000e+00, 2.000000000000e-02
2476, 3.500000000000e-01, 0.000000000000e+00, 2.000000000000e-02
2477, 3.600000000000e-01, 0.000000000000e+00, 2.000000000000e-02
2478, 3.700000000000e-01, 0.000000000000e+00, 2.000000000000e-02
2479, 3.800000000000e-01, 0.000000000000e+00, 2.000000000000e-02
2480, 3.900000000000e-01, 0.000000000000e+00, 2.000000000000e-02
2481, 4.000000000000e-01, 0.000000000000e+00, 2.000000000000e-02
2482, 4.100000000000e-01, 0.000000000000e+00, 2.000000000000e-02
2483, 4.200000000000e-01, 0.000000000000e+00, 2.000000000000e-02
2484, 4.300000000000e-01, 0.000000000000e+00, 2.000000000000e-02
2485, 4.400000000000e-01, 0.000000000000e+00, 2.000000000000e-02
2486, 4.500000000000e-01, 0.000000000000e+00, 2.000000000000e-02
2487, 4.600000000000e-01, 0.000000000000e+00, 2.000000000000e-02
2488, 4.700000000000e-01, 0.000000000000e+00, 2.000000000000e-02
2489, 4.800000000000e-01, 0.000000000000e+00, 2.000000000000e-02
2490, 4.900000000000e-01, 0.000000000000e+00, 2.000000000000e-02
2491, 5.000000000000e-01, 0.000000000000e+00, 2.000000000000e-02
2492, 5.100000000000e-01, 0.000000000000e+00, 2.000000000000e-02
2493, 5.200000000000e-01, 0.000000000000e+00, 2.000000000000e-02
2494, 5.300000000000e-01, 0.000000000000e+00, 2.000000000000e-02
2495, 5.400000000000e-01, 0.000000000000e+00, 2.000000000000e-02
2496, 5.500000000000e-01, 0.000000000000e+00, 2.000000000000e-02
2497, 5.600000000000e-01, 0.000000000000e+00, 2.000000000000e-02
2498, 5.700000000000e-01, 0.000000000000e+00, 2.000000000000e-02
2499, 5.800000000000e-01, 0.000000000000e+00, 2.000000000000e-02
2500, 5.900000000000e-01, 0.000000000000e+00, 2.000000000000e-02
2501, 6.000000000000e-01, 0.000000000000e+00, 2.000000000000e-02
2502, 0.000000000000e+00, 1.000000000000e-02, 2.000000000000e-02
2503, 1.000000000000e-02, 1.000000000000e-02, 2.000000000000e-02
2504, 2.000000000000e-02, 1.000000000000e-02, 2.000000000000e-02
2505, 3.000000000000e-02, 1.000000000000e-02, 2.000000000000e-02
2506, 4.000000000000e-02, 1.000000000000e-02, 2.000000000000e-02
2507, 5.000000000000e-02, 1.000000000000e-02, 2.000000000000e-02
2508, 6.000000000000e-02, 1.000000000000e-02, 2.000000000000e-02
2509, 7.000000000000e-02, 1.000000000000e-02, 2.000000000000e-02
2510, 8.000000000000e-02, 1.000000000000e-02, 2.000000000000e-02
2511, 9.000000000000e-02, 1.000000000000e-02, 2.000000000000e-02
2512, 1.000000000000e-01, 1.000000000000e-02, 2.000000000000e-02
2513, 1.100000000000e-01, 1.000000000000e-02, 2.000000000000e-02
2514, 1.200000000000e-01, 1.000000000000e-02, 2.000000000000e-02
2515, 1.300000000000e-01, 1.000000000000e-02, 2.000000000000e-02
2516, 1.400000000000e-01, 1.000000000000e-02, 2.000000000000e-02
2517, 1.500000000000e-01, 1.000000000000e-02, 2.000000000000e-02
2518, 1.600000000000e-01, 1.000000000000e-02, 2.000000000000e-02
2519, 1.700000000000e-01, 1.000000000000e-02, 2.000000000000e-02
2520, 1.800000000000e-01, 1.000000000000e-02, 2.000000000000e-02
2521, 1.900000000000e-01, 1.000000000000e-02, 2.000000000000e-02
2522, 2.000000000000e-01, 1.000000000000e-02, 2.000000000000e-02
2523, 2.100000000000e-01, 1.000000000000e-02, 2.000000000000e-02
2524, 2.200000000000e-01, 1.000000000000e-02, 2.000000000000e-02
2525, 2.300000000000e-01, 1.000000000000e-02, 2.000000000000e-02
2526, 2.400000000000e-01, 1.000000000000e-02, 2.000000000000e-02
2527, 2.500000000000e-01, 1.000000000000e-02, 2.000000000000e-02
2528, 2.600000000000e-01, 1.000000000000e-02, 2.000000000000e-02
2529, 2.700000000000e-01, 1.000000000000e-02, 2.000000000000e-02
2530, 2.800000000000e-01, 1.000000000000e-02, 2.000000000000e-02
2531, 2.900000000000e-01, 1.000000000000e-02, 2.000000000000e-02
2532, 3.000000000000e-01, 1.000000000000e-02, 2.000000000000e-02
2533, 3.100000000000e-01, 1.000000000000e-02, 2.000000000000e-02
2534, 3.200000000000e-01, 1.000000000000e-02, 2.000000000000e-02
2535, 3.300000000000e-01, 1.000000000000e-02, 2.000000000000e-02
2536, 3.400000000000e-01, 1.000000000000e-02, 2.000000000000e-02
2537, 3.500000000000e-01, 1.000000000000e-02, 2.000000000000e-02
2538, 3.600000000000e-01, 1.000000000000e-02, 2.000000000000e-02
2539, 3.700000000000e-01, 1.000000000000e-02, 2.000000000000e-02
2540, 3.800000000000e-01, 1.000000000000e-02, 2.000000000000e-02
2541, 3.900000000000e-01, 1.000000000000e-02, 2.000000000000e-02
2542, 4.000000000000e-01, 1.000000000000e-02, 2.000000000000e-02
2543, 4.100000000000e-01, 1.000000000000e-02, 2.000000000000e-02
2544, 4.200000000000e-01, 1.000000000000e-02, 2.000000000000e-02
2545, 4.300000000000e-01, 1.000000000000e-02, 2.000000000000e-02
2546, 4.400000000000e-01, 1.000000000000e-02, 2.000000000000e-02
2547, 4.500000000000e-01, 1.000000000000e-02, 2.000000000000e-02
2548, 4.600000000000e-01, 1.000000000000e-02, 2.000000000000e-02
2549, 4.700000000000e-01, 1.000000000000e-02, 2.000000000000e-02
2550, 4.800000000000e-01, 1.000000000000e-02, 2.000000000000e-02
2551, 4.900000000000e-01, 1.000000000000e-02, 2.000000000000e-02
2552, 5.000000000000e-01, 1.000000000000e-02, 2.000000000000e-02
2553, 5.100000000000e-01, 1.000000000000e-02, 2.000000000000e-02
2554, 5.200000000000e-01, 1.000000000000e-02, 2.000000000000e-02
2555, 5.300000000000e-01, 1.000000000000e-02, 2.000000000000e-02
2556, 5.400000000000e-01, 1.000000000000e-02, 2.000000000000e-02
2557, 5.500000000000e-01, 1.000000000000e-02, 2.000000000000e-02
2558, 5.600000000000e-01, 1.000000000000e-02, 2.000000000000e-02
2559, 5.700000000000e-01, 1.000000000000e-02, 2.000000000000e-02
2560, 5.800000000000e-01, 1.000000000000e-02, 2.000000000000e-02
2561, 5.900000000000e-01, 1.000000000000e-02, 2.000000000000e-02
2562, 6.000000000000e-01, 1.000000000000e-02, 2.000000000000e-02
2563, 0.000000000000e+00, 2.000000000000e-02, 2.000000000000e-02
2564, 1.000000000000e-02, 2.000000000000e-02, 2.000000000000e-02
2565, 2.000000000000e-02, 2.000000000000e-02, 2.000000000000e-02
2566, 3.000000000000e-02, 2.000000000000e-02, 2.000000000000e-02
2567, 4.000000000000e-02, 2.000000000000e-02, 2.000000000000e-02
2568, 5.000000000000e-02, 2.000000000000e-02, 2.000000000000e-02
2569, 6.000000000000e-02, 2.000000000000e-02, 2.000000000000e-02
2570, 7.000000000000e-02, 2.000000000000e-02, 2.000000000000e-02
2571, 8.000000000000e-02, 2.000000000000e-02, 2.000000000000e-02
2572, 9.000000000000e-02, 2.000000000000e-02, 2.000000000000e-02
2573, 1.000000000000e-01, 2.000000000000e-02, 2.000000000000e-02
2574, 1.100000000000e-01, 2.000000000000e-02, 2.000000000000e-02
2575, 1.200000000000e-01, 2.000000000000e-02, 2.000000000000e-02
2576, 1.300000000000e-01, 2.000000000000e-02, 2.000000000000e-02
2577, 1.400000000000e-01, 2.000000000000e-02, 2.000000000000e-02
2578, 1.500000000000e-01, 2.000000000000e-02, 2.000000000000e-02
2579, 1.600000000000e-01, 2.000000000000e-02, 2.000000000000e-02
2580, 1.700000000000e-01, 2.000000000000e-02, 2.000000000000e-02
2581, 1.800000000000e-01, 2.000000000000e-02, 2.000000000000e-02
2582, 1.900000000000e-01, 2.000000000000e-02, 2.000000000000e-02
2583, 2.000000000000e-01, 2.000000000000e-02, 2.000000000000e-02
2584, 2.100000000000e-01, 2.000000000000e-02, 2.000000000000e-02
2585, 2.200000000000e-01, 2.000000000000e-02, 2.000000000000e-02
2586, 2.300000000000e-01, 2.000000000000e-02, 2.000000000000e-02
2587, 2.400000000000e-01, 2.000000000000e-02, 2.000000000000e-02
2588, 2.500000000000e-01, 2.000000000000e-02, 2.000000000000e-02
2589, 2.600000000000e-01, 2.000000000000e-02, 2.000000000000e-02
2590, 2.700000000000e-01, 2.000000000000e-02, 2.000000000000e-02
2591, 2.800000000000e-01, 2.000000000000e-02, 2.000000000000e-02
2592, 2.900000000000e-01, 2.000000000000e-02, 2.000000000000e-02
2593, 3.000000000000e-01, 2.000000000000e-02, 2.000000000000e-02
2594, 3.100000000000e-01, 2.000000000000e-02, 2.000000000000e-02
2595, 3.200000000000e-01, 2.000000000000e-02, 2.000000000000e-02
2596, 3.300000000000e-01, 2.000000000000e-02, 2.000000000000e-02
2597, 3.400000000000e-01, 2.000000000000e-02, 2.000000000000e-02
2598, 3.500000000000e-01, 2.000000000000e-02, 2.000000000000e-02
2599, 3.600000000000e-01, 2.000000000000e-02, 2.000000000000e-02
2600, 3.700000000000e-01, 2.000000000000e-02, 2.000000000000e-02
2601, 3.800000000000e-01, 2.000000000000e-02, 2.000000000000e-02
2602, 3.900000000000e-01, 2.000000000000e-02, 2.000000000000e-02
2603, 4.000000000000e-01, 2.000000000000e-02, 2.000000000000e-02
2604, 4.100000000000e-01, 2.000000000000e-02, 2.000000000000e-02
2605, 4.200000000000e-01, 2.000000000000e-02, 2.000000000000e-02
2606, 4.300000000000e-01, 2.000000000000e-02, 2.000000000000e-02
2607, 4.400000000000e-01, 2.000000000000e-02, 2.000000000000e-02
2608, 4.500000000000e-01, 2.000000000000e-02, 2.000000000000e-02
2609, 4.600000000000e-01, 2.000000000000e-02, 2.000000000000e-02
2610, 4.700000000000e-01, 2.000000000000e-02, 2.000000000000e-02
2611, 4.800000000000e-01, 2.000000000000e-02, 2.000000000000e-02
2612, 4.900000000000e-01, 2.000000000000e-02, 2.000000000000e-02
2613, 5.000000000000e-01, 2.000000000000e-02, 2.000000000000e-02
2614, 5.100000000000e-01, 2.000000000000e-02, 2.000000000000e-02
2615, 5.200000000000e-01, 2.000000000000e-02, 2.000000000000e-02
2616, 5.300000000000e-01, 2.000000000000e-02, 2.000000000000e-02
2617, 5.400000000000e-01, 2.000000000000e-02, 2.000000000000e-02
2618, 5.500000000000e-01, 2.000000000000e-02, 2.000000000000e-02
2619, 5.600000000000e-01, 2.000000000000e-02, 2.000000000000e-02
2620, 5.700000000000e-01, 2.000000000000e-02, 2.000000000000e-02
2621, 5.800000000000e-01, 2.000000000000e-02, 2.000000000000e-02
2622, 5.900000000000e-01, 2.000000000000e-02, 2.000000000000e-02
2623, 6.000000000000e-01, 2.000000000000e-02, 2.000000000000e-02
2624, 0.000000000000e+00, 3.000000000000e-02, 2.000000000000e-02
2625, 1.000000000000e-02, 3.000000000000e-02, 2.000000000000e-02
2626, 2.000000000000e-02, 3.000000000000e-02, 2.000000000000e-02
2627, 3.000000000000e-02, 3.000000000000e-02, 2.000000000000e-02
2628, 4.000000000000e-02, 3.000000000000e-02, 2.000000000000e-02
2629, 5.000000000000e-02, 3.000000000000e-02, 2.000000000000e-02
2630, 6.000000000000e-02, 3.000000000000e-02, 2.000000000000e-02
2631, 7.000000000000e-02, 3.000000000000e-02, 2.000000000000e-02
2632, 8.000000000000e-02, 3.000000000000e-02, 2.000000000000e-02
2633, 9.000000000000e-02, 3.000000000000e-02, 2.000000000000e-02
2634, 1.000000000000e-01, 3.000000000000e-02, 2.000000000000e-02
2635, 1.100000000000e-01, 3.000000000000e-02, 2.000000000000e-02
2636, 1.200000000000e-01, 3.000000000000e-02, 2.000000000000e-02
2637, 1.300000000000e-01, 3.000000000000e-02, 2.000000000000e-02
2638, 1.400000000000e-01, 3.000000000000e-02, 2.000000000000e-02
2639, 1.500000000000e-01, 3.000000000000e-02, 2.000000000000e-02
2640, 1.600000000000e-01, 3.000000000000e-02, 2.000000000000e-02
2641, 1.700000000000e-01, 3.000000000000e-02, 2.000000000000e-02
2642, 1.800000000000e-01, 3.000000000000e-02, 2.000000000000e-02
2643, 1.900000000000e-01, 3.000000000000e-02, 2.000000000000e-02
2644, 2.000000000000e-01, 3.000000000000e-02, 2.000000000000e-02
2645, 2.100000000000e-01, 3.000000000000e-02, 2.000000000000e-02
2646, 2.200000000000e-01, 3.000000000000e-02, 2.000000000000e-02
2647, 2.300000000000e-01, 3.000000000000e-02, 2.000000000000e-02
2648, 2.400000000000e-01, 3.000000000000e-02, 2.000000000000e-02
2649, 2.500000000000e-01, 3.000000000000e-02, 2.000000000000e-02
2650, 2.600000000000e-01, 3.000000000000e-02, 2.000000000000e-02
2651, 2.700000000000e-01, 3.000000000000e-02, 2.000000000000e-02
2652, 2.800000000000e-01, 3.000000000000e-02, 2.000000000000e-02
2653, 2.900000000000e-01, 3.000000000000e-02, 2.000000000000e-02
2654, 3.000000000000e-01, 3.000000000000e-02, 2.000000000000e-02
2655, 3.100000000000e-01, 3.000000000000e-02, 2.000000000000e-02
2656, 3.200000000000e-01, 3.000000000000e-02, 2.000000000000e-02
2657, 3.300000000000e-01, 3.000000000000e-02, 2.000000000000e-02
2658, 3.400000000000e-01, 3.000000000000e-02, 2.000000000000e-02
2659, 3.500000000000e-01, 3.000000000000e-02, 2.000000000000e-02
2660, 3.600000000000e-01, 3.000000000000e-02, 2.000000000000e-02
2661, 3.700000000000e-01, 3.000000000000e-02, 2.000000000000e-02
2662, 3.800000000000e-01, 3.000000000000e-02, 2.000000000000e-02
2663, 3.900000000000e-01, 3.000000000000e-02, 2.000000000000e-02
2664, 4.000000000000e-01, 3.000000000000e-02, 2.000000000000e-02
2665, 4.100000000000e-01, 3.000000000000e-02, 2.000000000000e-02
2666, 4.200000000000e-01, 3.000000000000e-02, 2.000000000000e-02
2667, 4.300000000000e-01, 3.000000000000e-02, 2.000000000000e-02
2668, 4.400000000000e-01, 3.000000000000e-02, 2.000000000000e-02
2669, 4.500000000000e-01, 3.000000000000e-02, 2.000000000000e-02
2670, 4.600000000000e-01, 3.000000000000e-02, 2.000000000000e-02
2671, 4.700000000000e-01, 3.000000000000e-02, 2.000000000000e-02
2672, 4.800000000000e-01, 3.000000000000e-02, 2.000000000000e-02
2673, 4.900000000000e-01, 3.000000000000e-02, 2.000000000000e-02
2674, 5.000000000000e-01, 3.000000000000e-02, 2.000000000000e-02
2675, 5.100000000000e-01, 3.000000000000e-02, 2.000000000000e-02
2676, 5.200000000000e-01, 3.000000000000e-02, 2.000000000000e-02
2677, 5.300000000000e-01, 3.000000000000e-02, 2.000000000000e-02
2678, 5.400000000000e-01, 3.000000000000e-02, 2.000000000000e-02
2679, 5.500000000000e-01, 3.000000000000e-02, 2.000000000000e-02
2680, 5.600000000000e-01, 3.000000000000e-02, 2.000000000000e-02
2681, 5.700000000000e-01, 3.000000000000e-02, 2.000000000000e-02
2682, 5.800000000000e-01, 3.000000000000e-02, 2.000000000000e-02
2683, 5.900000000000e-01, 3.000000000000e-02, 2.000000000000e-02
2684, 6.000000000000e-01, 3.000000000000e-02, 2.000000000000e-02
2685, 0.000000000000e+00, 4.000000000000e-02, 2.000000000000e-02
2686, 1.000000000000e-02, 4.000000000000e-02, 2.000000000000e-02
2687, 2.000000000000e-02, 4.000000000000e-02, 2.000000000000e-02
2688, 3.000000000000e-02, 4.000000000000e-02, 2.000000000000e-02
2689, 4.000000000000e-02, 4.000000000000e-02, 2.000000000000e-02
2690, 5.000000000000e-02, 4.000000000000e-02, 2.000000000000e-02
2691, 6.000000000000e-02, 4.000000000000e-02, 2.000000000000e-02
2692, 7.000000000000e-02, 4.000000000000e-02, 2.000000000000e-02
2693, 8.000000000000e-02, 4.000000000000e-02, 2.000000000000e-02
2694, 9.000000000000e-02, 4.000000000000e-02, 2.000000000000e-02
2695, 1.000000000000e-01, 4.000000000000e-02, 2.000000000000e-02
2696, 1.100000000000e-01, 4.000000000000e-02, 2.000000000000e-02
2697, 1.200000000000e-01, 4.000000000000e-02, 2.000000000000e-02
2698, 1.300000000000e-01, 4.000000000000e-02, 2.000000000000e-02
2699, 1.400000000000e-01, 4.000000000000e-02, 2.000000000000e-02
2700, 1.500000000000e-01, 4.000000000000e-02, 2.000000000000e-02
2701, 1.600000000000e-01, 4.000000000000e-02, 2.000000000000e-02
2702, 1.700000000000e-01, 4.000000000000e-02, 2.000000000000e-02
2703, 1.800000000000e-01, 4.000000000000e-02, 2.000000000000e-02
2704, 1.900000000000e-01, 4.000000000000e-02, 2.000000000000e-02
2705, 2.000000000000e-01, 4.000000000000e-02, 2.000000000000e-02
2706, 2.100000000000e-01, 4.000000000000e-02, 2.000000000000e-02
2707, 2.200000000000e-01, 4.000000000000e-02, 2.000000000000e-02
2708, 2.300000000000e-01, 4.000000000000e-02, 2.000000000000e-02
2709, 2.400000000000e-01, 4.000000000000e-02, 2.000000000000e-02
2710, 2.500000000000e-01, 4.000000000000e-02, 2.000000000000e-02
2711, 2.600000000000e-01, 4.000000000000e-02, 2.000000000000e-02
2712, 2.700000000000e-01, 4.000000000000e-02, 2.000000000000e-02
2713, 2.800000000000e-01, 4.000000000000e-02, 2.000000000000e-02
2714, 2.900000000000e-01, 4.000000000000e-02, 2.000000000000e-02
2715, 3.000000000000e-01, 4.000000000000e-02, 2.000000000000e-02
2716, 3.100000000000e-01, 4.000000000000e-02, 2.000000000000e-02
2717, 3.200000000000e-01, 4.000000000000e-02, 2.000000000000e-02
2718, 3.300000000000e-01, 4.000000000000e-02, 2.000000000000e-02
2719, 3.400000000000e-01, 4.000000000000e-02, 2.000000000000e-02
2720, 3.500000000000e-01, 4.000000000000e-02, 2.000000000000e-02
2721, 3.600000000000e-01, 4.000000000000e-02, 2.000000000000e-02
2722, 3.700000000000e-01, 4.000000000000e-02, 2.000000000000e-02
2723, 3.800000000000e-01, 4.000000000000e-02, 2.000000000000e-02
2724, 3.900000000000e-01, 4.000000000000e-02, 2.000000000000e-02
2725, 4.000000000000e-01, 4.000000000000e-02, 2.000000000000e-02
2726, 4.100000000000e-01, 4.000000000000e-02, 2.000000000000e-02
2727, 4.200000000000e-01, 4.000000000000e-02, 2.000000000000e-02
2728, 4.300000000000e-01, 4.000000000000e-02, 2.000000000000e-02
2729, 4.400000000000e-01, 4.000000000000e-02, 2.000000000000e-02
2730, 4.500000000000e-01, 4.000000000000e-02, 2.000000000000e-02
2731, 4.600000000000e-01, 4.000000000000e-02, 2.000000000000e-02
2732, 4.700000000000e-01, 4.000000000000e-02, 2.000000000000e-02
2733, 4.800000000000e-01, 4.000000000000e-02, 2.000000000000e-02
2734, 4.900000000000e-01, 4.000000000000e-02, 2.000000000000e-02
2735, 5.000000000000e-01, 4.000000000000e-02, 2.000000000000e-02
2736, 5.100000000000e-01, 4.000000000000e-02, 2.000000000000e-02
2737, 5.200000000000e-01, 4.000000000000e-02, 2.000000000000e-02
2738, 5.300000000000e-01, 4.000000000000e-02, 2.000000000000e-02
2739, 5.400000000000e-01, 4.000000000000e-02, 2.000000000000e-02
2740, 5.500000000000e-01, 4.000000000000e-02, 2.000000000000e-02
2741, 5.600000000000e-01, 4.000000000000e-02, 2.000000000000e-02
2742, 5.700000000000e-01, 4.000000000000e-02, 2.000000000000e-02
2743, 5.800000000000e-01, 4.000000000000e-02, 2.000000000000e-02
2744, 5.900000000000e-01, 4.000000000000e-02, 2.000000000000e-02
2745, 6.000000000000e-01, 4.000000000000e-02, 2.000000000000e-02
*Element, type=C3D8R, elset=BEAM_EALL
1, 1, 2, 63, 62, 550, 551, 612, 611
2, 2, 3, 64, 63, 551, 552, 613, 612
3, 3, 4, 65, 64, 552, 553, 614, 613
4, 4, 5, 66, 65, 553, 554, 615, 614
5, 5, 6, 67, 66, 554, 555, 616, 615
6, 6, 7, 68, 67, 555, 556, 617, 616
7, 7, 8, 69, 68, 556, 557, 618, 617
8, 8, 9, 70, 69, 557, 558, 619, 618
9, 9, 10, 71, 70, 558, 559, 620, 619
10, 10, 11, 72, 71, 559, 560, 621, 620
11, 11, 12, 73, 72, 560, 561, 622, 621
12, 12, 13, 74, 73, 561, 562, 623, 622
13, 13, 14, 75, 74, 562, 563, 624, 623
14, 14, 15, 76, 75, 563, 564, 625, 624
15, 15, 16, 77, 76, 564, 565, 626, 625
16, 16, 17, 78, 77, 565, 566, 627, 626
17, 17, 18, 79, 78, 566, 567, 628, 627
18, 18, 19, 80, 79, 567, 568, 629, 628
19, 19, 20, 81, 80, 568, 569, 630, 629
20, 20, 21, 82, 81, 569, 570, 631, 630
21, 21, 22, 83, 82, 570, 571, 632, 631
22, 22, 23, 84, 83, 571, 572, 633, 632
23, 23, 24, 85, 84, 572, 573, 634, 633
24, 24, 25, 86, 85, 573, 574, 635, 634
25, 25, 26, 87, 86, 574, 575, 636, 635
26, 26, 27, 88, 87, 575, 576, 637, 636
27, 27, 28, 89, 88, 576, 577, 638, 637
28, 28, 29, 90, 89, 577, 578, 639, 638
29, 29, 30, 91, 90, 578, 579, 640, 639
30, 30, 31, 92, 91, 579, 580, 641, 640
31, 31, 32, 93, 92, 580, 581, 642, 641
32, 32, 33, 94, 93, 581, 582, 643, 642
33, 33, 34, 95, 94, 582, 583, 644, 643
34, 34, 35, 96, 95, 583, 584, 645, 644
35, 35, 36, 97, 96, 584, 585, 646, 645
36, 36, 37, 98, 97, 585, 586, 647, 646
37, 37, 38, 99, 98, 586, 587, 648, 647
38, 38, 39, 100, 99, 587, 588, 649, 648
39, 39, 40, 101, 100, 588, 589, 650, 649
40, 40, 41, 102, 101, 589, 590, 651, 650
41, 41, 42, 103, 102, 590, 591, 652, 651
42, 42, 43, 104, 103, 591, 592, 653, 652
43, 43, 44, 105, 104, 592, 593, 654, 653
44, 44, 45, 106, 105, 593, 594, 655, 654
45, 45, 46, 107, 106, 594, 595, 656, 655
46, 46, 47, 108, 107, 595, 596, 657, 656
47, 47, 48, 109, 108, 596, 597, 658, 657
48, 48, 49, 110, 109, 597, 598, 659, 658
49, 49, 50, 111, 110, 598, 599, 660, 659
50, 50, 51, 112, 111, 599, 600, 661, 660
51, 51, 52, 113, 112, 600, 601, 662, 661
52, 52, 53, 114, 113, 601, 602, 663, 662
53, 53, 54, 115, 114, 602, 603, 664, 663
54, 54, 55, 116, 115, 603, 604, 665, 664
55, 55, 56, 117, 116, 604, 605, 666, 665
56, 56, 57, 118, 117, 605, 606, 667, 666
57, 57, 58, 119, 118, 606, 607, 668, 667
58, 58, 59, 120, 119, 607, 608, 669, 668
59, 59, 60, 121, 120, 608, 609, 670, 669
60, 60, 61, 122, 121, 609, 610, 671, 670
61, 62, 63, 124, 123, 611, 612, 673, 672
62, 63, 64, 125, 124, 612, 613, 674, 673
63, 64, 65, 126, 125, 613, 614, 675, 674
64, 65, 66, 127, 126, 614, 615, 676, 675
65, 66, 67, 128, 127, 615, 616, 677, 676
66, 67, 68, 129, 128, 616, 617, 678, 677
67, 68, 69, 130, 129, 617, 618, 679, 678
68, 69, 70, 131, 130, 618, 619, 680, 679
69, 70, 71, 132, 131, 619, 620, 681, 680
70, 71, 72, 133, 132, 620, 621, 682, 681
71, 72, 73, 134, 133, 621, 622, 683, 682
72, 73, 74, 135, 134, 622, 623, 684, 683
73, 74, 75, 136, 135, 623, 624, 685, 684
74, 75, 76, 137, 136, 624, 625, 686, 685
75, 76, 77, 138, 137, 625, 626, 687, 686
76, 77, 78, 139, 138, 626, 627, 688, 687
77, 78, 79, 140, 139, 627, 628, 689, 688
78, 79, 80, 141, 140, 628, 629, 690, 689
79, 80, 81, 142, 141, 629, 630, 691, 690
80, 81, 82, 143, 142, 630, 631, 692, 691
81, 82, 83, 144, 143, 631, 632, 693, 692
82, 83, 84, 145, 144, 632, 633, 694, 693
83, 84, 85, 146, 145, 633, 634, 695, 694
84, 85, 86, 147, 146, 634, 635, 696, 695
85, 86, 87, 148, 147, 635, 636, 697, 696
86, 87, 88, 149, 148, 636, 637, 698, 697
87, 88, 89, 150, 149, 637, 638, 699, 698
88, 89, 90, 151, 150, 638, 639, 700, 699
89, 90, 91, 152, 151, 639, 640, 701, 700
90, 91, 92, 153, 152, 640, 641, 702, 701
91, 92, 93, 154, 153, 641, 642, 703, 702
92, 93, 94, 155, 154, 642, 643, 704, 703
93, 94, 95, 156, 155, 643, 644, 705, 704
94, 95, 96, 157, 156, 644, 645, 706, 705
95, 96, 97, 158, 157, 645, 646, 707, 706
96, 97, 98, 159, 158, 646, 647, 708, 707
97, 98, 99, 160, 159, 647, 648, 709, 708
98, 99, 100, 161, 160, 648, 649, 710, 709
99, 100, 101, 162, 161, 649, 650, 711, 710
100, 101, 102, 163, 162, 650, 651, 712, 711
101, 102, 103, 164, 163, 651, 652, 713, 712
102, 103, 104, 165, 164, 652, 653, 714, 713
103, 104, 105, 166, 165, 653, 654, 715, 714
104, 105, 106, 167, 166, 654, 655, 716, 715
105, 106, 107, 168, 167, 655, 656, 717, 716
106, 107, 108, 169, 168, 656, 657, 718, 717
107, 108, 109, 170, 169, 657, 658, 719, 718
108, 109, 110, 171, 170, 658, 659, 720, 719
109, 110, 111, 172, 171, 659, 660, 721, 720
110, 111, 112, 173, 172, 660, 661, 722, 721
111, 112, 113, 174, 173, 661, 662, 723, 722
112, 113, 114, 175, 174, 662, 663, 724, 723
113, 114, 115, 176, 175, 663, 664, 725, 724
114, 115, 116, 177, 176, 664, 665, 726, 725
115, 116, 117, 178, 177, 665, 666, 727, 726
116, 117, 118, 179, 178, 666, 667, 728, 727
117, 118, 119, 180, 179, 667, 668, 729, 728
118, 119, 120, 181, 180, 668, 669, 730, 729
119, 120, 121, 182, 181, 669, 670, 731, 730
120, 121, 122, 183, 182, 670, 671, 732, 731
121, 123, 124, 185, 184, 672, 673, 734, 733
122, 124, 125, 186, 185, 673, 674, 735, 734
123, 125, 126, 187, 186, 674, 675, 736, 735
124, 126, 127, 188, 187, 675, 676, 737, 736
125, 127, 128, 189, 188, 676, 677, 738, 737
126, 128, 129, 190, 189, 677, 678, 739, 738
127, 129, 130, 191, 190, 678, 679, 740, 739
128, 130, 131, 192, 191, 679, 680, 741, 740
129, 131, 132, 193, 192, 680, 681, 742, 741
130, 132, 133, 194, 193, 681, 682, 743, 742
131, 133, 134, 195, 194, 682, 683, 744, 743
132, 134, 135, 196, 195, 683, 684, 745, 744
133, 135, 136, 197, 196, 684, 685, 746, 745
134, 136, 137, 198, 197, 685, 686, 747, 746
135, 137, 138, 199, 198, 686, 687, 748, 747
136, 138, 139, 200, 199, 687, 688, 749, 748
137, 139, 140, 201, 200, 688, 689, 750, 749
138, 140, 141, 202, 201, 689, 690, 751, 750
139, 141, 142, 203, 202, 690, 691, 752, 751
140, 142, 143, 204, 203, 691, 692, 753, 752
141, 143, 144, 205, 204, 692, 693, 754, 753
142, 144, 145, 206, 205, 693, 694, 755, 754
143, 145, 146, 207, 206, 694, 695, 756, 755
144, 146, 147, 208, 207, 695, 696, 757, 756
145, 147, 148, 209, 208, 696, 697, 758, 757
146, 148, 149, 210, 209, 697, 698, 759, 758
147, 149, 150, 211, 210, 698, 699, 760, 759
148, 150, 151, 212, 211, 699, 700, 761, 760
149, 151, 152, 213, 212, 700, 701, 762, 761
150, 152, 153, 214, 213, 701, 702, 763, 762
151, 153, 154, 215, 214, 702, 703, 764, 763
152, 154, 155, 216, 215, 703, 704, 765, 764
153, 155, 156, 217, 216, 704, 705, 766, 765
154, 156, 157, 218, 217, 705, 706, 767, 766
155, 157, 158, 219, 218, 706, 707, 768, 767
156, 158, 159, 220, 219, 707, 708, 769, 768
157, 159, 160, 221, 220, 708, 709, 770, 769
158, 160, 161, 222, 221, 709, 710, 771, 770
159, 161, 162, 223, 222, 710, 711, 772, 771
160, 162, 163, 224, 223, 711, 712, 773, 772
161, 163, 164, 225, 224, 712, 713, 774, 773
162, 164, 165, 226, 225, 713, 714, 775, 774
163, 165, 166, 227, 226, 714, 715, 776, 775
164, 166, 167, 228, 227, 715, 716, 777, 776
165, 167, 168, 229, 228, 716, 717, 778, 777
166, 168, 169, 230, 229, 717, 718, 779, 778
167, 169, 170, 231, 230, 718, 719, 780, 779
168, 170, 171, 232, 231, 719, 720, 781, 780
169, 171, 172, 233, 232, 720, 721, 782, 781
170, 172, 173, 234, 233, 721, 722, 783, 782
171, 173, 174, 235, 234, 722, 723, 784, 783
172, 174, 175, 236, 235, 723, 724, 785, 784
173, 175, 176, 237, 236, 724, 725, 786, 785
174, 176, 177, 238, 237, 725, 726, 787, 786
175, 177, 178, 239, 238, 726, 727, 788, 787
176, 178, 179, 240, 239, 727, 728, 789, 788
177, 179, 180, 241, 240, 728, 729, 790, 789
178, 180, 181, 242, 241, 729, 730, 791, 790
179, 181, 182, 243, 242, 730, 731, 792, 791
180, 182, 183, 244, 243, 731, 732, 793, 792
181, 184, 185, 246, 245, 733, 734, 795, 794
182, 185, 186, 247, 246, 734, 735, 796, 795
183, 186, 187, 248, 247, 735, 736, 797, 796
184, 187, 188, 249, 248, 736, 737, 798, 797
185, 188, 189, 250, 249, 737, 738, 799, 798
186, 189, 190, 251, 250, 738, 739, 800, 799
187, 190, 191, 252, 251, 739, 740, 801, 800
188, 191, 192, 253, 252, 740, 741, 802, 801
189, 192, 193, 254, 253, 741, 742, 803, 802
190, 193, 194, 255, 254, 742, 743, 804, 803
191, 194, 195, 256, 255, 743, 744, 805, 804
192, 195, 196, 257, 256, 744, 745, 806, 805
193, 196, 197, 258, 257, 745, 746, 807, 806
194, 197, 198, 259, 258, 746, 747, 808, 807
195, 198, 199, 260, 259, 747, 748, 809, 808
196, 199, 200, 261, 260, 748, 749, 810, 809
197, 200, 201, 262, 261, 749, 750, 811, 810
198, 201, 202, 263, 262, 750, 751, 812, 811
199, 202, 203, 264, 263, 751, 752, 813, 812
200, 203, 204, 265, 264, 752, 753, 814, 813
201, 204, 205, 266, 265, 753, 754, 815, 814
202, 205, 206, 267, 266, 754, 755, 816, 815
203, 206, 207, 268, 267, 755, 756, 817, 816
204, 207, 208, 269, 268, 756, 757, 818, 817
205, 208, 209, 270, 269, 757, 758, 819, 818
206, 209, 210, 271, 270, 758, 759, 820, 819
207, 210, 211, 272, 271, 759, 760, 821, 820
208, 211, 212, 273, 272, 760, 761, 822, 821
209, 212, 213, 274, 273, 761, 762, 823, 822
210, 213, 214, 275, 274, 762, 763, 824, 823
211, 214, 215, 276, 275, 763, 764, 825, 824
212, 215, 216, 277, 276, 764, 765, 826, 825
213, 216, 217, 278, 277, 765, 766, 827, 826
214, 217, 218, 279, 278, 766, 767, 828, 827
215, 218, 219, 280, 279, 767, 768, 829, 828
216, 219, 220, 281, 280, 768, 769, 830, 829
217, 220, 221, 282, 281, 769, 770, 831, 830
218, 221, 222, 283, 282, 770, 771, 832, 831
219, 222, 223, 284, 283, 771, 772, 833, 832
220, 223, 224, 285, 284, 772, 773, 834, 833
221, 224, 225, 286, 285, 773, 774, 835, 834
222, 225, 226, 287, 286, 774, 775, 836, 835
223, 226, 227, 288, 287, 775, 776, 837, 836
224, 227, 228, 289, 288, 776, 777, 838, 837
225, 228, 229, 290, 289, 777, 778, 839, 838
226, 229, 230, 291, 290, 778, 779, 840, 839
227, 230, 231, 292, 291, 779, 780, 841, 840
228, 231, 232, 293, 292, 780, 781, 842, 841
229, 232, 233, 294, 293, 781, 782, 843, 842
230, 233, 234, 295, 294, 782, 783, 844, 843
231, 234, 235, 296, 295, 783, 784, 845, 844
232, 235, 236, 297, 296, 784, 785, 846, 845
233, 236, 237, 298, 297, 785, 786, 847, 846
234, 237, 238, 299, 298, 786, 787, 848, 847
235, 238, 239, 300, 299, 787, 788, 849, 848
236, 239, 240, 301, 300, 788, 789, 850, 849
237, 240, 241, 302, 301, 789, 790, 851, 850
238, 241, 242, 303, 302, 790, 791, 852, 851
239, 242, 243, 304, 303, 791, 792, 853, 852
240, 243, 244, 305, 304, 792, 793, 854, 853
241, 245, 246, 307, 306, 794, 795, 856, 855
242, 246, 247, 308, 307, 795, 796, 857, 856
243, 247, 248, 309, 308, 796, 797, 858, 857
244, 248, 249, 310, 309, 797, 798, 859, 858
245, 249, 250, 311, 310, 798, 799, 860, 859
246, 250, 251, 312, 311, 799, 800, 861, 860
247, 251, 252, 313, 312, 800, 801, 862, 861
248, 252, 253, 314, 313, 801, 802, 863, 862
249, 253, 254, 315, 314, 802, 803, 864, 863
250, 254, 255, 316, 315, 803, 804, 865, 864
251, 255, 256, 317, 316, 804, 805, 866, 865
252, 256, 257, 318, 317, 805, 806, 867, 866
253, 257, 258, 319, 318, 806, 807, 868, 867
254, 258, 259, 320, 319, 807, 808, 869, 868
255, 259, 260, 321, 320, 808, 809, 870, 869
256, 260, 261, 322, 321, 809, 810, 871, 870
257, 261, 262, 323, 322, 810, 811, 872, 871
258, 262, 263, 324, 323, 811, 812, 873, 872
259, 263, 264, 325, 324, 812, 813, 874, 873
260, 264, 265, 326, 325, 813, 814, 875, 874
261, 265, 266, 327, 326, 814, 815, 876, 875
262, 266, 267, 328, 327, 815, 816, 877, 876
263, 267, 268, 329, 328, 816, 817, 878, 877
264, 268, 269, 330, 329, 817, 818, 879, 878
265, 269, 270, 331, 330, 818, 819, 880, 879
266, 270, 271, 332, 331, 819, 820, 881, 880
267, 271, 272, 333, 332, 820, 821, 882, 881
268, 272, 273, 334, 333, 821, 822, 883, 882
269, 273, 274, 335, 334, 822, 823, 884, 883
270, 274, 275, 336, 335, 823, 824, 885, 884
271, 275, 276, 337, 336, 824, 825, 886, 885
272, 276, 277, 338, 337, 825, 826, 887, 886
273, 277, 278, 339, 338, 826, 827, 888, 887
274, 278, 279, 340, 339, 827, 828, 889, 888
275, 279, 280, 341, 340, 828, 829, 890, 889
276, 280, 281, 342, 341, 829, 830, 891, 890
277, 281, 282, 343, 342, 830, 831, 892, 891
278, 282, 283, 344, 343, 831, 832, 893, 892
279, 283, 284, 345, 344, 832, 833, 894, 893
280, 284, 285, 346, 345, 833, 834, 895, 894
281, 285, 286, 347, 346, 834, 835, 896, 895
282, 286, 287, 348, 347, 835, 836, 897, 896
283, 287, 288, 349, 348, 836, 837, 898, 897
284, 288, 289, 350, 349, 837, 838, 899, 898
285, 289, 290, 351, 350, 838, 839, 900, 899
286, 290, 291, 352, 351, 839, 840, 901, 900
287, 291, 292, 353, 352, 840, 841, 902, 901
288, 292, 293, 354, 353, 841, 842, 903, 902
289, 293, 294, 355, 354, 842, 843, 904, 903
290, 294, 295, 356, 355, 843, 844, 905, 904
291, 295, 296, 357, 356, 844, 845, 906, 905
292, 296, 297, 358, 357, 845, 846, 907, 906
293, 297, 298, 359, 358, 846, 847, 908, 907
294, 298, 299, 360, 359, 847, 848, 909, 908
295, 299, 300, 361, 360, 848, 849, 910, 909
296, 300, 301, 362, 361, 849, 850, 911, 910
297, 301, 302, 363, 362, 850, 851, 912, 911
298, 302, 303, 364, 363, 851, 852, 913, 912
299, 303, 304, 365, 364, 852, 853, 914, 913
300, 304, 305, 366, 365, 853, 854, 915, 914
301, 306, 307, 368, 367, 855, 856, 917, 916
302, 307, 308, 369, 368, 856, 857, 918, 917
303, 308, 309, 370, 369, 857, 858, 919, 918
304, 309, 310, 371, 370, 858, 859, 920, 919
305, 310, 311, 372, 371, 859, 860, 921, 920
306, 311, 312, 373, 372, 860, 861, 922, 921
307, 312, 313, 374, 373, 861, 862, 923, 922
308, 313, 314, 375, 374, 862, 863, 924, 923
309, 314, 315, 376, 375, 863, 864, 925, 924
310, 315, 316, 377, 376, 864, 865, 926, 925
311, 316, 317, 378, 377, 865, 866, 927, 926
312, 317, 318, 379, 378, 866, 867, 928, 927
313, 318, 319, 380, 379, 867, 868, 929, 928
314, 319, 320, 381, 380, 868, 869, 930, 929
315, 320, 321, 382, 381, 869, 870, 931, 930
316, 321, 322, 383, 382, 870, 871, 932, 931
317, 322, 323, 384, 383, 871, 872, 933, 932
318, 323, 324, 385, 384, 872, 873, 934, 933
319, 324, 325, 386, 385, 873, 874, 935, 934
320, 325, 326, 387, 386, 874, 875, 936, 935
321, 326, 327, 388, 387, 875, 876, 937, 936
322, 327, 328, 389, 388, 876, 877, 938, 937
323, 328, 329, 390, 389, 877, 878, 939, 938
324, 329, 330, 391, 390, 878, 879, 940, 939
325, 330, 331, 392, 391, 879, 880, 941, 940
326, 331, 332, 393, 392, 880, 881, 942, 941
327, 332, 333, 394, 393, 881, 882, 943, 942
328, 333, 334, 395, 394, 882, 883, 944, 943
329, 334, 335, 396, 395, 883, 884, 945, 944
330, 335, 336, 397, 396, 884, 885, 946, 945
331, 336, 337, 398, 397, 885, 886, 947, 946
332, 337, 338, 399, 398, 886, 887, 948, 947
333, 338, 339, 400, 399, 887, 888, 949, 948
334, 339, 340, 401, 400, 888, 889, 950, 949
335, 340, 341, 402, 401, 889, 890, 951, 950
336, 341, 342, 403, 402, 890, 891, 952, 951
337, 342, 343, 404, 403, 891, 892, 953, 952
338, 343, 344, 405, 404, 892, 893, 954, 953
339, 344, 345, 406, 405, 893, 894, 955, 954
340, 345, 346, 407, 406, 894, 895, 956, 955
341, 346, 347, 408, 407, 895, 896, 957, 956
342, 347, 348, 409, 408, 896, 897, 958, 957
343, 348, 349, 410, 409, 897, 898, 959, 958
344, 349, 350, 411, 410, 898, 899, 960, 959
345, 350, 351, 412, 411, 899, 900, 961, 960
346, 351, 352, 413, 412, 900, 901, 962, 961
347, 352, 353, 414, 413, 901, 902, 963, 962
348, 353, 354, 415, 414, 902, 903, 964, 963
349, 354, 355, 416, 415, 903, 904, 965, 964
350, 355, 356, 417, 416, 904, 905, 966, 965
351, 356, 357, 418, 417, 905, 906, 967, 966
352, 357, 358, 419, 418, 906, 907, 968, 967
353, 358, 359, 420, 419, 907, 908, 969, 968
354, 359, 360, 421, 420, 908, 909, 970, 969
355, 360, 361, 422, 421, 909, 910, 971, 970
356, 361, 362, 423, 422, 910, 911, 972, 971
357, 362, 363, 424, 423, 911, 912, 973, 972
358, 363, 364, 425, 424, 912, 913, 974, 973
359, 364, 365, 426, 425, 913, 914, 975, 974
360, 365, 366, 427, 426, 914, 915, 976, 975
361, 367, 368, 429, 428, 916, 917, 978, 977
362, 368, 369, 430, 429, 917, 918, 979, 978
363, 369, 370, 431, 430, 918, 919, 980, 979
364, 370, 371, 432, 431, 919, 920, 981, 980
365, 371, 372, 433, 432, 920, 921, 982, 981
366, 372, 373, 434, 433, 921, 922, 983, 982
367, 373, 374, 435, 434, 922, 923, 984, 983
368, 374, 375, 436, 435, 923, 924, 985, 984
369, 375, 376, 437, 436, 924, 925, 986, 985
370, 376, 377, 438, 437, 925, 926, 987, 986
371, 377, 378, 439, 438, 926, 927, 988, 987
372, 378, 379, 440, 439, 927, 928, 989, 988
373, 379, 380, 441, 440, 928, 929, 990, 989
374, 380, 381, 442, 441, 929, 930, 991, 990
375, 381, 382, 443, 442, 930, 931, 992, 991
376, 382, 383, 444, 443, 931, 932, 993, 992
377, 383, 384, 445, 444, 932, 933, 994, 993
378, 384, 385, 446, 445, 933, 934, 995, 994
379, 385, 386, 447, 446, 934, 935, 996, 995
380, 386, 387, 448, 447, 935, 936, 997, 996
381, 387, 388, 449, 448, 936, 937, 998, 997
382, 388, 389, 450, 449, 937, 938, 999, 998
383, 389, 390, 451, 450, 938, 939, 1000, 999
384, 390, 391, 452, 451, 939, 940, 1001, 1000
385, 391, 392, 453, 452, 940, 941, 1002, 1001
386, 392, 393, 454, 453, 941, 942, 1003, 1002
387, 393, 394, 455, 454, 942, 943, 1004, 1003
388, 394, 395, 456, 455, 943, 944, 1005, 1004
389, 395, 396, 457, 456, 944, 945, 1006, 1005
390, 396, 397, 458, 457, 945, 946, 1007, 1006
391, 397, 398, 459, 458, 946, 947, 1008, 1007
392, 398, 399, 460, 459, 947, 948, 1009, 1008
393, 399, 400, 461, 460, 948, 949, 1010, 1009
394, 400, 401, 462, 461, 949, 950, 1011, 1010
395, 401, 402, 463, 462, 950, 951, 1012, 1011
396, 402, 403, 464, 463, 951, 952, 1013, 1012
397, 403, 404, 465, 464, 952, 953, 1014, 1013
398, 404, 405, 466, 465, 953, 954, 1015, 1014
399, 405, 406, 467, 466, 954, 955, 1016, 1015
400, 406, 407, 468, 467, 955, 956, 1017, 1016
401, 407, 408, 469, 468, 956, 957, 1018, 1017
402, 408, 409, 470, 469, 957, 958, 1019, 1018
403, 409, 410, 471, 470, 958, 959, 1020, 1019
404, 410, 411, 472, 471, 959, 960, 1021, 1020
405, 411, 412, 473, 472, 960, 961, 1022, 1021
406, 412, 413, 474, 473, 961, 962, 1023, 1022
407, 413, 414, 475, 474, 962, 963, 1024, 1023
408, 414, 415, 476, 475, 963, 964, 1025, 1024
409, 415, 416, 477, 476, 964, 965, 1026, 1025
410, 416, 417, 478, 477, 965, 966, 1027, 1026
411, 417, 418, 479, 478, 966, 967, 1028, 1027
412, 418, 419, 480, 479, 967, 968, 1029, 1028
413, 419, 420, 481, 480, 968, 969, 1030, 1029
414, 420, 421, 482, 481, 969, 970, 1031, 1030
415, 421, 422, 483, 482, 970, 971, 1032, 1031
416, 422, 423, 484, 483, 971, 972, 1033, 1032
417, 423, 424, 485, 484, 972, 973, 1034, 1033
418, 424, 425, 486, 485, 973, 974, 1035, 1034
419, 425, 426, 487, 486, 974, 975, 1036, 1035
420, 426, 427, 488, 487, 975, 976, 1037, 1036
421, 428, 429, 490, 489, 977, 978, 1039, 1038
422, 429, 430, 491, 490, 978, 979, 1040, 1039
423, 430, 431, 492, 491, 979, 980, 1041, 1040
424, 431, 432, 493, 492, 980, 981, 1042, 1041
425, 432, 433, 494, 493, 981, 982, 1043, 1042
426, 433, 434, 495, 494, 982, 983, 1044, 1043
427, 434, 435, 496, 495, 983, 984, 1045, 1044
428, 435, 436, 497, 496, 984, 985, 1046, 1045
429, 436, 437, 498, 497, 985, 986, 1047, 1046
430, 437, 438, 499, 498, 986, 987, 1048, 1047
431, 438, 439, 500, 499, 987, 988, 1049, 1048
432, 439, 440, 501, 500, 988, 989, 1050, 1049
433, 440, 441, 502, 501, 989, 990, 1051, 1050
434, 441, 442, 503, 502, 990, 991, 1052, 1051
435, 442, 443, 504, 503, 991, 992, 1053, 1052
436, 443, 444, 505, 504, 992, 993, 1054, 1053
437, 444, 445, 506, 505, 993, 994, 1055, 1054
438, 445, 446, 507, 506, 994, 995, 1056, 1055
439, 446, 447, 508, 507, 995, 996, 1057, 1056
440, 447, 448, 509, 508, 996, 997, 1058, 1057
441, 448, 449, 510, 509, 997, 998, 1059, 1058
442, 449, 450, 511, 510, 998, 999, 1060, 1059
443, 450, 451, 512, 511, 999, 1000, 1061, 1060
444, 451, 452, 513, 512, 1000, 1001, 1062, 1061
445, 452, 453, 514, 513, 1001, 1002, 1063, 1062
446, 453, 454, 515, 514, 1002, 1003, 1064, 1063
447, 454, 455, 516, 515, 1003, 1004, 1065, 1064
448, 455, 456, 517, 516, 1004, 1005, 1066, 1065
449, 456, 457, 518, 517, 1005, 1006, 1067, 1066
450, 457, 458, 519, 518, 1006, 1007, 1068, 1067
451, 458, 459, 520, 519, 1007, 1008, 1069, 1068
452, 459, 460, 521, 520, 1008, 1009, 1070, 1069
453, 460, 461, 522, 521, 1009, 1010, 1071, 1070
454, 461, 462, 523, 522, 1010, 1011, 1072, 1071
455, 462, 463, 524, 523, 1011, 1012, 1073, 1072
456, 463, 464, 525, 524, 1012, 1013, 1074, 1073
457, 464, 465, 526, 525, 1013, 1014, 1075, 1074
458, 465, 466, 527, 526, 1014, 1015, 1076, 1075
459, 466, 467, 528, 527, 1015, 1016, 1077, 1076
460, 467, 468, 529, 528, 1016, 1017, 1078, 1077
461, 468, 469, 530, 529, 1017, 1018, 1079, 1078
462, 469, 470, 531, 530, 1018, 1019, 1080, 1079
463, 470, 471, 532, 531, 1019, 1020, 1081, 1080
464, 471, 472, 533, 532, 1020, 1021, 1082, 1081
465, 472, 473, 534, 533, 1021, 1022, 1083, 1082
466, 473, 474, 535, 534, 1022, 1023, 1084, 1083
467, 474, 475, 536, 535, 1023, 1024, 1085, 1084
468, 475, 476, 537, 536, 1024, 1025, 1086, 1085
469, 476, 477, 538, 537, 1025, 1026, 1087, 1086
470, 477, 478, 539, 538, 1026, 1027, 1088, 1087
471, 478, 479, 540, 539, 1027, 1028, 1089, 1088
472, 479, 480, 541, 540, 1028, 1029, 1090, 1089
473, 480, 481, 542, 541, 1029, 1030, 1091, 1090
474, 481, 482, 543, 542, 1030, 1031, 1092, 1091
475, 482, 483, 544, 543, 1031, 1032, 1093, 1092
476, 483, 484, 545, 544, 1032, 1033, 1094, 1093
477, 484, 485, 546, 545, 1033, 1034, 1095, 1094
478, 485, 486, 547, 546, 1034, 1035, 1096, 1095
479, 486, 487, 548, 547, 1035, 1036, 1097, 1096
480, 487, 488, 549, 548, 1036, 1037, 1098, 1097
481, 550, 551, 612, 611, 1099, 1100, 1161, 1160
482, 551, 552, 613, 612, 1100, 1101, 1162, 1161
483, 552, 553, 614, 613, 1101, 1102, 1163, 1162
484, 553, 554, 615, 614, 1102, 1103, 1164, 1163
485, 554, 555, 616, 615, 1103, 1104, 1165, 1164
486, 555, 556, 617, 616, 1104, 1105, 1166, 1165
487, 556, 557, 618, 617, 1105, 1106, 1167, 1166
488, 557, 558, 619, 618, 1106, 1107, 1168, 1167
489, 558, 559, 620, 619, 1107, 1108, 1169, 1168
490, 559, 560, 621, 620, 1108, 1109, 1170, 1169
491, 560, 561, 622, 621, 1109, 1110, 1171, 1170
492, 561, 562, 623, 622, 1110, 1111, 1172, 1171
493, 562, 563, 624, 623, 1111, 1112, 1173, 1172
494, 563, 564, 625, 624, 1112, 1113, 1174, 1173
495, 564, 565, 626, 625, 1113, 1114, 1175, 1174
496, 565, 566, 627, 626, 1114, 1115, 1176, 1175
497, 566, 567, 628, 627, 1115, 1116, 1177, 1176
498, 567, 568, 629, 628, 1116, 1117, 1178, 1177
499, 568, 569, 630, 629, 1117, 1118, 1179, 1178
500, 569, 570, 631, 630, 1118, 1119, 1180, 1179
501, 570, 571, 632, 631, 1119, 1120, 1181, 1180
502, 571, 572, 633, 632, 1120, 1121, 1182, 1181
503, 572, 573, 634, 633, 1121, 1122, 1183, 1182
504, 573, 574, 635, 634, 1122, 1123, 1184, 1183
505, 574, 575, 636, 635, 1123, 1124, 1185, 1184
506, 575, 576, 637, 636, 1124, 1125, 1186, 1185
507, 576, 577, 638, 637, 1125, 1126, 1187, 1186
508, 577, 578, 639, 638, 1126, 1127, 1188, 1187
509, 578, 579, 640, 639, 1127, 1128, 1189, 1188
510, 579, 580, 641, 640, 1128, 1129, 1190, 1189
511, 580, 581, 642, 641, 1129, 1130, 1191, 1190
512, 581, 582, 643, 642, 1130, 1131, 1192, 1191
513, 582, 583, 644, 643, 1131, 1132, 1193, 1192
514, 583, 584, 645, 644, 1132, 1133, 1194, 1193
515, 584, 585, 646, 645, 1133, 1134, 1195, 1194
516, 585, 586, 647, 646, 1134, 1135, 1196, 1195
517, 586, 587, 648, 647, 1135, 1136, 1197, 1196
518, 587, 588, 649, 648, 1136, 1137, 1198, 1197
519, 588, 589, 650, 649, 1137, 1138, 1199, 1198
520, 589, 590, 651, 650, 1138, 1139, 1200, 1199
521, 590, 591, 652, 651, 1139, 1140, 1201, 1200
522, 591, 592, 653, 652, 1140, 1141, 1202, 1201
523, 592, 593, 654, 653, 1141, 1142, 1203, 1202
524, 593, 594, 655, 654, 1142, 1143, 1204, 1203
525, 594, 595, 656, 655, 1143, 1144, 1205, 1204
526, 595, 596, 657, 656, 1144, 1145, 1206, 1205
527, 596, 597, 658, 657, 1145, 1146, 1207, 1206
528, 597, 598, 659, 658, 1146, 1147, 1208, 1207
529, 598, 599, 660, 659, 1147, 1148, 1209, 1208
530, 599, 600, 661, 660, 1148, 1149, 1210, 1209
531, 600, 601, 662, 661, 1149, 1150, 1211, 1210
532, 601, 602, 663, 662, 1150, 1151, 1212, 1211
533, 602, 603, 664, 663, 1151, 1152, 1213, 1212
534, 603, 604, 665, 664, 1152, 1153, 1214, 1213
535, 604, 605, 666, 665, 1153, 1154, 1215, 1214
536, 605, 606, 667, 666, 1154, 1155, 1216, 1215
537, 606, 607, 668, 667, 1155, 1156, 1217, 1216
538, 607, 608, 669, 668, 1156, 1157, 1218, 1217
539, 608, 609, 670, 669, 1157, 1158, 1219, 1218
540, 609, 610, 671, 670, 1158, 1159, 1220, 1219
541, 611, 612, 673, 672, 1160, 1161, 1222, 1221
542, 612, 613, 674, 673, 1161, 1162, 1223, 1222
543, 613, 614, 675, 674, 1162, 1163, 1224, 1223
544, 614, 615, 676, 675, 1163, 1164, 1225, 1224
545, 615, 616, 677, 676, 1164, 1165, 1226, 1225
546, 616, 617, 678, 677, 1165, 1166, 1227, 1226
547, 617, 618, 679, 678, 1166, 1167, 1228, 1227
548, 618, 619, 680, 679, 1167, 1168, 1229, 1228
549, 619, 620, 681, 680, 1168, 1169, 1230, 1229
550, 620, 621, 682, 681, 1169, 1170, 1231, 1230
551, 621, 622, 683, 682, 1170, 1171, 1232, 1231
552, 622, 623, 684, 683, 1171, 1172, 1233, 1232
553, 623, 624, 685, 684, 1172, 1173, 1234, 1233
554, 624, 625, 686, 685, 1173, 1174, 1235, 1234
555, 625, 626, 687, 686, 1174, 1175, 1236, 1235
556, 626, 627, 688, 687, 1175, 1176, 1237, 1236
557, 627, 628, 689, 688, 1176, 1177, 1238, 1237
558, 628, 629, 690, 689, 1177, 1178, 1239, 1238
559, 629, 630, 691, 690, 1178, 1179, 1240, 1239
560, 630, 631, 692, 691, 1179, 1180, 1241, 1240
561, 631, 632, 693, 692, 1180, 1181, 1242, 1241
562, 632, 633, 694, 693, 1181, 1182, 1243, 1242
563, 633, 634, 695, 694, 1182, 1183, 1244, 1243
564, 634, 635, 696, 695, 1183, 1184, 1245, 1244
565, 635, 636, 697, 696, 1184, 1185, 1246, 1245
566, 636, 637, 698, 697, 1185, 1186, 1247, 1246
567, 637, 638, 699, 698, 1186, 1187, 1248, 1247
568, 638, 639, 700, 699, 1187, 1188, 1249, 1248
569, 639, 640, 701, 700, 1188, 1189, 1250, 1249
570, 640, 641, 702, 701, 1189, 1190, 1251, 1250
571, 641, 642, 703, 702, 1190, 1191, 1252, 1251
572, 642, 643, 704, 703, 1191, 1192, 1253, 1252
573, 643, 644, 705, 704, 1192, 1193, 1254, 1253
574, 644, 645, 706, 705, 1193, 1194, 1255, 1254
575, 645, 646, 707, 706, 1194, 1195, 1256, 1255
576, 646, 647, 708, 707, 1195, 1196, 1257, 1256
577, 647, 648, 709, 708, 1196, 1197, 1258, 1257
578, 648, 649, 710, 709, 1197, 1198, 1259, 1258
579, 649, 650, 711, 710, 1198, 1199, 1260, 1259
580, 650, 651, 712, 711, 1199, 1200, 1261, 1260
581, 651, 652, 713, 712, 1200, 1201, 1262, 1261
582, 652, 653, 714, 713, 1201, 1202, 1263, 1262
583, 653, 654, 715, 714, 1202, 1203, 1264, 1263
584, 654, 655, 716, 715, 1203, 1204, 1265, 1264
585, 655, 656, 717, 716, 1204, 1205, 1266, 1265
586, 656, 657, 718, 717, 1205, 1206, 1267, 1266
587, 657, 658, 719, 718, 1206, 1207, 1268, 1267
588, 658, 659, 720, 719, 1207, 1208, 1269, 1268
589, 659, 660, 721, 720, 1208, 1209, 1270, 1269
590, 660, 661, 722, 721, 1209, 1210, 1271, 1270
591, 661, 662, 723, 722, 1210, 1211, 1272, 1271
592, 662, 663, 724, 723, 1211, 1212, 1273, 1272
593, 663, 664, 725, 724, 1212, 1213, 1274, 1273
594, 664, 665, 726, 725, 1213, 1214, 1275, 1274
595, 665, 666, 727, 726, 1214, 1215, 1276, 1275
596, 666, 667, 728, 727, 1215, 1216, 1277, 1276
597, 667, 668, 729, 728, 1216, 1217, 1278, 1277
598, 668, 669, 730, 729, 1217, 1218, 1279, 1278
599, 669, 670, 731, 730, 1218, 1219, 1280, 1279
600, 670, 671, 732, 731, 1219, 1220, 1281, 1280
601, 672, 673, 734, 733, 1221, 1222, 1283, 1282
602, 673, 674, 735, 734, 1222, 1223, 1284, 1283
603, 674, 675, 736, 735, 1223, 1224, 1285, 1284
604, 675, 676, 737, 736, 1224, 1225, 1286, 1285
605, 676, 677, 738, 737, 1225, 1226, 1287, 1286
606, 677, 678, 739, 738, 1226, 1227, 1288, 1287
607, 678, 679, 740, 739, 1227, 1228, 1289, 1288
608, 679, 680, 741, 740, 1228, 1229, 1290, 1289
609, 680, 681, 742, 741, 1229, 1230, 1291, 1290
610, 681, 682, 743, 742, 1230, 1231, 1292, 1291
611, 682, 683, 744, 743, 1231, 1232, 1293, 1292
612, 683, 684, 745, 744, 1232, 1233, 1294, 1293
613, 684, 685, 746, 745, 1233, 1234, 1295, 1294
614, 685, 686, 747, 746, 1234, 1235, 1296, 1295
615, 686, 687, 748, 747, 1235, 1236, 1297, 1296
616, 687, 688, 749, 748, 1236, 1237, 1298, 1297
617, 688, 689, 750, 749, 1237, 1238, 1299, 1298
618, 689, 690, 751, 750, 1238, 1239, 1300, 1299
619, 690, 691, 752, 751, 1239, 1240, 1301, 1300
620, 691, 692, 753, 752, 1240, 1241, 1302, 1301
621, 692, 693, 754, 753, 1241, 1242, 1303, 1302
622, 693, 694, 755, 754, 1242, 1243, 1304, 1303
623, 694, 695, 756, 755, 1243, 1244, 1305, 1304
624, 695, 696, 757, 756, 1244, 1245, 1306, 1305
625, 696, 697, 758, 757, 1245, 1246, 1307, 1306
626, 697, 698, 759, 758, 1246, 1247, 1308, 1307
627, 698, 699, 760, 759, 1247, 1248, 1309, 1308
628, 699, 700, 761, 760, 1248, 1249, 1310, 1309
629, 700, 701, 762, 761, 1249, 1250, 1311, 1310
630, 701, 702, 763, 762, 1250, 1251, 1312, 1311
631, 702, 703, 764, 763, 1251, 1252, 1313, 1312
632, 703, 704, 765, 764, 1252, 1253, 1314, 1313
633, 704, 705, 766, 765, 1253, 1254, 1315, 1314
634, 705, 706, 767, 766, 1254, 1255, 1316, 1315
635, 706, 707, 768, 767, 1255, 1256, 1317, 1316
636, 707, 708, 769, 768, 1256, 1257, 1318, 1317
637, 708, 709, 770, 769, 1257, 1258, 1319, 1318
638, 709, 710, 771, 770, 1258, 1259, 1320, 1319
639, 710, 711, 772, 771, 1259, 1260, 1321, 1320
640, 711, 712, 773, 772, 1260, 1261, 1322, 1321
641, 712, 713, 774, 773, 1261, 1262, 1323, 1322
642, 713, 714, 775, 774, 1262, 1263, 1324, 1323
643, 714, 715, 776, 775, 1263, 1264, 1325, 1324
644, 715, 716, 777, 776, 1264, 1265, 1326, 1325
645, 716, 717, 778, 777, 1265, 1266, 1327, 1326
646, 717, 718, 779, 778, 1266, 1267, 1328, 1327
647, 718, 719, 780, 779, 1267, 1268, 1329, 1328
648, 719, 720, 781, 780, 1268, 1269, 1330, 1329
649, 720, 721, 782, 781, 1269, 1270, 1331, 1330
650, 721, 722, 783, 782, 1270, 1271, 1332, 1331
651, 722, 723, 784, 783, 1271, 1272, 1333, 1332
652, 723, 724, 785, 784, 1272, 1273, 1334, 1333
653, 724, 725, 786, 785, 1273, 1274, 1335, 1334
654, 725, 726, 787, 786, 1274, 1275, 1336, 1335
655, 726, 727, 788, 787, 1275, 1276, 1337, 1336
656, 727, 728, 789, 788, 1276, 1277, 1338, 1337
657, 728, 729, 790, 789, 1277, 1278, 1339, 1338
658, 729, 730, 791, 790, 1278, 1279, 1340, 1339
659, 730, 731, 792, 791, 1279, 1280, 1341, 1340
660, 731, 732, 793, 792, 1280, 1281, 1342, 1341
661, 733, 734, 795, 794, 1282, 1283, 1344, 1343
662, 734, 735, 796, 795, 1283, 1284, 1345, 1344
663, 735, 736, 797, 796, 1284, 1285, 1346, 1345
664, 736, 737, 798, 797, 1285, 1286, 1347, 1346
665, 737, 738, 799, 798, 1286, 1287, 1348, 1347
666, 738, 739, 800, 799, 1287, 1288, 1349, 1348
667, 739, 740, 801, 800, 1288, 1289, 1350, 1349
668, 740, 741, 802, 801, 1289, 1290, 1351, 1350
669, 741, 742, 803, 802, 1290, 1291, 1352, 1351
670, 742, 743, 804, 803, 1291, 1292, 1353, 1352
671, 743, 744, 805, 804, 1292, 1293, 1354, 1353
672, 744, 745, 806, 805, 1293, 1294, 1355, 1354
673, 745, 746, 807, 806, 1294, 1295, 1356, 1355
674, 746, 747, 808, 807, 1295, 1296, 1357, 1356
675, 747, 748, 809, 808, 1296, 1297, 1358, 1357
676, 748, 749, 810, 809, 1297, 1298, 1359, 1358
677, 749, 750, 811, 810, 1298, 1299, 1360, 1359
678, 750, 751, 812, 811, 1299, 1300, 1361, 1360
679, 751, 752, 813, 812, 1300, 1301, 1362, 1361
680, 752, 753, 814, 813, 1301, 1302, 1363, 1362
681, 753, 754, 815, 814, 1302, 1303, 1364, 1363
682, 754, 755, 816, 815, 1303, 1304, 1365, 1364
683, 755, 756, 817, 816, 1304, 1305, 1366, 1365
684, 756, 757, 818, 817, 1305, 1306, 1367, 1366
685, 757, 758, 819, 818, 1306, 1307, 1368, 1367
686, 758, 759, 820, 819, 1307, 1308, 1369, 1368
687, 759, 760, 821, 820, 1308, 1309, 1370, 1369
688, 760, 761, 822, 821, 1309, 1310, 1371, 1370
689, 761, 762, 823, 822, 1310, 1311, 1372, 1371
690, 762, 763, 824, 823, 1311, 1312, 1373, 1372
691, 763, 764, 825, 824, 1312, 1313, 1374, 1373
692, 764, 765, 826, 825, 1313, 1314, 1375, 1374
693, 765, 766, 827, 826, 1314, 1315, 1376, 1375
694, 766, 767, 828, 827, 1315, 1316, 1377, 1376
695, 767, 768, 829, 828, 1316, 1317, 1378, 1377
696, 768, 769, 830, 829, 1317, 1318, 1379, 1378
697, 769, 770, 831, 830, 1318, 1319, 1380, 1379
698, 770, 771, 832, 831, 1319, 1320, 1381, 1380
699, 771, 772, 833, 832, 1320, 1321, 1382, 1381
700, 772, 773, 834, 833, 1321, 1322, 1383, 1382
701, 773, 774, 835, 834, 1322, 1323, 1384, 1383
702, 774, 775, 836, 835, 1323, 1324, 1385, 1384
703, 775, 776, 837, 836, 1324, 1325, 1386, 1385
704, 776, 777, 838, 837, 1325, 1326, 1387, 1386
705, 777, 778, 839, 838, 1326, 1327, 1388, 1387
706, 778, 779, 840, 839, 1327, 1328, 1389, 1388
707, 779, 780, 841, 840, 1328, 1329, 1390, 1389
708, 780, 781, 842, 841, 1329, 1330, 1391, 1390
709, 781, 782, 843, 842, 1330, 1331, 1392, 1391
710, 782, 783, 844, 843, 1331, 1332, 1393, 1392
711, 783, 784, 845, 844, 1332, 1333, 1394, 1393
712, 784, 785, 846, 845, 1333, 1334, 1395, 1394
713, 785, 786, 847, 846, 1334, 1335, 1396, 1395
714, 786, 787, 848, 847, 1335, 1336, 1397, 1396
715, 787, 788, 849, 848, 1336, 1337, 1398, 1397
716, 788, 789, 850, 849, 1337, 1338, 1399, 1398
717, 789, 790, 851, 850, 1338, 1339, 1400, 1399
718, 790, 791, 852, 851, 1339, 1340, 1401, 1400
719, 791, 792, 853, 852, 1340, 1341, 1402, 1401
720, 792, 793, 854, 853, 1341, 1342, 1403, 1402
721, 794, 795, 856, 855, 1343, 1344, 1405, 1404
722, 795, 796, 857, 856, 1344, 1345, 1406, 1405
723, 796, 797, 858, 857, 1345, 1346, 1407, 1406
724, 797, 798, 859, 858, 1346, 1347, 1408, 1407
725, 798, 799, 860, 859, 1347, 1348, 1409, 1408
726, 799, 800, 861, 860, 1348, 1349, 1410, 1409
727, 800, 801, 862, 861, 1349, 1350, 1411, 1410
728, 801, 802, 863, 862, 1350, 1351, 1412, 1411
729, 802, 803, 864, 863, 1351, 1352, 1413, 1412
730, 803, 804, 865, 864, 1352, 1353, 1414, 1413
731, 804, 805, 866, 865, 1353, 1354, 1415, 1414
732, 805, 806, 867, 866, 1354, 1355, 1416, 1415
733, 806, 807, 868, 867, 1355, 1356, 1417, 1416
734, 807, 808, 869, 868, 1356, 1357, 1418, 1417
735, 808, 809, 870, 869, 1357, 1358, 1419, 1418
736, 809, 810, 871, 870, 1358, 1359, 1420, 1419
737, 810, 811, 872, 871, 1359, 1360, 1421, 1420
738, 811, 812, 873, 872, 1360, 1361, 1422, 1421
739, 812, 813, 874, 873, 1361, 1362, 1423, 1422
740, 813, 814, 875, 874, 1362, 1363, 1424, 1423
741, 814, 815, 876, 875, 1363, 1364, 1425, 1424
742, 815, 816, 877, 876, 1364, 1365, 1426, 1425
743, 816, 817, 878, 877, 1365, 1366, 1427, 1426
744, 817, 818, 879, 878, 1366, 1367, 1428, 1427
745, 818, 819, 880, 879, 1367, 1368, 1429, 1428
746, 819, 820, 881, 880, 1368, 1369, 1430, 1429
747, 820, 821, 882, 881, 1369, 1370, 1431, 1430
748, 821, 822, 883, 882, 1370, 1371, 1432, 1431
749, 822, 823, 884, 883, 1371, 1372, 1433, 1432
750, 823, 824, 885, 884, 1372, 1373, 1434, 1433
751, 824, 825, 886, 885, 1373, 1374, 1435, 1434
752, 825, 826, 887, 886, 1374, 1375, 1436, 1435
753, 826, 827, 888, 887, 1375, 1376, 1437, 1436
754, 827, 828, 889, 888, 1376, 1377, 1438, 1437
755, 828, 829, 890, 889, 1377, 1378, 1439, 1438
756, 829, 830, 891, 890, 1378, 1379, 1440, 1439
757, 830, 831, 892, 891, 1379, 1380, 1441, 1440
758, 831, 832, 893, 892, 1380, 1381, 1442, 1441
759, 832, 833, 894, 893, 1381, 1382, 1443, 1442
760, 833, 834, 895, 894, 1382, 1383, 1444, 1443
761, 834, 835, 896, 895, 1383, 1384, 1445, 1444
762, 835, 836, 897, 896, 1384, 1385, 1446, 1445
763, 836, 837, 898, 897, 1385, 1386, 1447, 1446
764, 837, 838, 899, 898, 1386, 1387, 1448, 1447
765, 838, 839, 900, 899, 1387, 1388, 1449, 1448
766, 839, 840, 901, 900, 1388, 1389, 1450, 1449
767, 840, 841, 902, 901, 1389, 1390, 1451, 1450
768, 841, 842, 903, 902, 1390, 1391, 1452, 1451
769, 842, 843, 904, 903, 1391, 1392, 1453, 1452
770, 843, 844, 905, 904, 1392, 1393, 1454, 1453
771, 844, 845, 906, 905, 1393, 1394, 1455, 1454
772, 845, 846, 907, 906, 1394, 1395, 1456, 1455
773, 846, 847, 908, 907, 1395, 1396, 1457, 1456
774, 847, 848, 909, 908, 1396, 1397, 1458, 1457
775, 848, 849, 910, 909, 1397, 1398, 1459, 1458
776, 849, 850, 911, 910, 1398, 1399, 1460, 1459
777, 850, 851, 912, 911, 1399, 1400, 1461, 1460
778, 851, 852, 913, 912, 1400, 1401, 1462, 1461
779, 852, 853, 914, 913, 1401, 1402, 1463, 1462
780, 853, 854, 915, 914, 1402, 1403, 1464, 1463
781, 855, 856, 917, 916, 1404, 1405, 1466, 1465
782, 856, 857, 918, 917, 1405, 1406, 1467, 1466
783, 857, 858, 919, 918, 1406, 1407, 1468, 1467
784, 858, 859, 920, 919, 1407, 1408, 1469, 1468
785, 859, 860, 921, 920, 1408, 1409, 1470, 1469
786, 860, 861, 922, 921, 1409, 1410, 1471, 1470
787, 861, 862, 923, 922, 1410, 1411, 1472, 1471
788, 862, 863, 924, 923, 1411, 1412, 1473, 1472
789, 863, 864, 925, 924, 1412, 1413, 1474, 1473
790, 864, 865, 926, 925, 1413, 1414, 1475, 1474
791, 865, 866, 927, 926, 1414, 1415, 1476, 1475
792, 866, 867, 928, 927, 1415, 1416, 1477, 1476
793, 867, 868, 929, 928, 1416, 1417, 1478, 1477
794, 868, 869, 930, 929, 1417, 1418, 1479, 1478
795, 869, 870, 931, 930, 1418, 1419, 1480, 1479
796, 870, 871, 932, 931, 1419, 1420, 1481, 1480
797, 871, 872, 933, 932, 1420, 1421, 1482, 1481
798, 872, 873, 934, 933, 1421, 1422, 1483, 1482
799, 873, 874, 935, 934, 1422, 1423, 1484, 1483
800, 874, 875, 936, 935, 1423, 1424, 1485, 1484
801, 875, 876, 937, 936, 1424, 1425, 1486, 1485
802, 876, 877, 938, 937, 1425, 1426, 1487, 1486
803, 877, 878, 939, 938, 1426, 1427, 1488, 1487
804, 878, 879, 940, 939, 1427, 1428, 1489, 1488
805, 879, 880, 941, 940, 1428, 1429, 1490, 1489
806, 880, 881, 942, 941, 1429, 1430, 1491, 1490
807, 881, 882, 943, 942, 1430, 1431, 1492, 1491
808, 882, 883, 944, 943, 1431, 1432, 1493, 1492
809, 883, 884, 945, 944, 1432, 1433, 1494, 1493
810, 884, 885, 946, 945, 1433, 1434, 1495, 1494
811, 885, 886, 947, 946, 1434, 1435, 1496, 1495
812, 886, 887, 948, 947, 1435, 1436, 1497, 1496
813, 887, 888, 949, 948, 1436, 1437, 1498, 1497
814, 888, 889, 950, 949, 1437, 1438, 1499, 1498
815, 889, 890, 951, 950, 1438, 1439, 1500, 1499
816, 890, 891, 952, 951, 1439, 1440, 1501, 1500
817, 891, 892, 953, 952, 1440, 1441, 1502, 1501
818, 892, 893, 954, 953, 1441, 1442, 1503, 1502
819, 893, 894, 955, 954, 1442, 1443, 1504, 1503
820, 894, 895, 956, 955, 1443, 1444, 1505, 1504
821, 895, 896, 957, 956, 1444, 1445, 1506, 1505
822, 896, 897, 958, 957, 1445, 1446, 1507, 1506
823, 897, 898, 959, 958, 1446, 1447, 1508, 1507
824, 898, 899, 960, 959, 1447, 1448, 1509, 1508
825, 899, 900, 961, 960, 1448, 1449, 1510, 1509
826, 900, 901, 962, 961, 1449, 1450, 1511, 1510
827, 901, 902, 963, 962, 1450, 1451, 1512, 1511
828, 902, 903, 964, 963, 1451, 1452, 1513, 1512
829, 903, 904, 965, 964, 1452, 1453, 1514, 1513
830, 904, 905, 966, 965, 1453, 1454, 1515, 1514
831, 905, 906, 967, 966, 1454, 1455, 1516, 1515
832, 906, 907, 968, 967, 1455, 1456, 1517, 1516
833, 907, 908, 969, 968, 1456, 1457, 1518, 1517
834, 908, 909, 970, 969, 1457, 1458, 1519, 1518
835, 909, 910, 971, 970, 1458, 1459, 1520, 1519
836, 910, 911, 972, 971, 1459, 1460, 1521, 1520
837, 911, 912, 973, 972, 1460, 1461, 1522, 1521
838, 912, 913, 974, 973, 1461, 1462, 1523, 1522
839, 913, 914, 975, 974, 1462, 1463, 1524, 1523
840, 914, 915, 976, 975, 1463, 1464, 1525, 1524
841, 916, 917, 978, 977, 1465, 1466, 1527, 1526
842, 917, 918, 979, 978, 1466, 1467, 1528, 1527
843, 918, 919, 980, 979, 1467, 1468, 1529, 1528
844, 919, 920, 981, 980, 1468, 1469, 1530, 1529
845, 920, 921, 982, 981, 1469, 1470, 1531, 1530
846, 921, 922, 983, 982, 1470, 1471, 1532, 1531
847, 922, 923, 984, 983, 1471, 1472, 1533, 1532
848, 923, 924, 985, 984, 1472, 1473, 1534, 1533
849, 924, 925, 986, 985, 1473, 1474, 1535, 1534
850, 925, 926, 987, 986, 1474, 1475, 1536, 1535
851, 926, 927, 988, 987, 1475, 1476, 1537, 1536
852, 927, 928, 989, 988, 1476, 1477, 1538, 1537
853, 928, 929, 990, 989, 1477, 1478, 1539, 1538
854, 929, 930, 991, 990, 1478, 1479, 1540, 1539
855, 930, 931, 992, 991, 1479, 1480, 1541, 1540
856, 931, 932, 993, 992, 1480, 1481, 1542, 1541
857, 932, 933, 994, 993, 1481, 1482, 1543, 1542
858, 933, 934, 995, 994, 1482, 1483, 1544, 1543
859, 934, 935, 996, 995, 1483, 1484, 1545, 1544
860, 935, 936, 997, 996, 1484, 1485, 1546, 1545
861, 936, 937, 998, 997, 1485, 1486, 1547, 1546
862, 937, 938, 999, 998, 1486, 1487, 1548, 1547
863, 938, 939, 1000, 999, 1487, 1488, 1549, 1548
864, 939, 940, 1001, 1000, 1488, 1489, 1550, 1549
865, 940, 941, 1002, 1001, 1489, 1490, 1551, 1550
866, 941, 942, 1003, 1002, 1490, 1491, 1552, 1551
867, 942, 943, 1004, 1003, 1491, 1492, 1553, 1552
868, 943, 944, 1005, 1004, 1492, 1493, 1554, 1553
869, 944, 945, 1006, 1005, 1493, 1494, 1555, 1554
870, 945, 946, 1007, 1006, 1494, 1495, 1556, 1555
871, 946, 947, 1008, 1007, 1495, 1496, 1557, 1556
872, 947, 948, 1009, 1008, 1496, 1497, 1558, 1557
873, 948, 949, 1010, 1009, 1497, 1498, 1559, 1558
874, 949, 950, 1011, 1010, 1498, 1499, 1560, 1559
875, 950, 951, 1012, 1011, 1499, 1500, 1561, 1560
876, 951, 952, 1013, 1012, 1500, 1501, 1562, 1561
877, 952, 953, 1014, 1013, 1501, 1502, 1563, 1562
878, 953, 954, 1015, 1014, 1502, 1503, 1564, 1563
879, 954, 955, 1016, 1015, 1503, 1504, 1565, 1564
880, 955, 956, 1017, 1016, 1504, 1505, 1566, 1565
881, 956, 957, 1018, 1017, 1505, 1506, 1567, 1566
882, 957, 958, 1019, 1018, 1506, 1507, 1568, 1567
883, 958, 959, 1020, 1019, 1507, 1508, 1569, 1568
884, 959, 960, 1021, 1020, 1508, 1509, 1570, 1569
885, 960, 961, 1022, 1021, 1509, 1510, 1571, 1570
886, 961, 962, 1023, 1022, 1510, 1511, 1572, 1571
887, 962, 963, 1024, 1023, 1511, 1512, 1573, 1572
888, 963, 964, 1025, 1024, 1512, 1513, 1574, 1573
889, 964, 965, 1026, 1025, 1513, 1514, 1575, 1574
890, 965, 966, 1027, 1026, 1514, 1515, 1576, 1575
891, 966, 967, 1028, 1027, 1515, 1516, 1577, 1576
892, 967, 968, 1029, 1028, 1516, 1517, 1578, 1577
893, 968, 969, 1030, 1029, 1517, 1518, 1579, 1578
894, 969, 970, 1031, 1030, 1518, 1519, 1580, 1579
895, 970, 971, 1032, 1031, 1519, 1520, 1581, 1580
896, 971, 972, 1033, 1032, 1520, 1521, 1582, 1581
897, 972, 973, 1034, 1033, 1521, 1522, 1583, 1582
898, 973, 974, 1035, 1034, 1522, 1523, 1584, 1583
899, 974, 975, 1036, 1035, 1523, 1524, 1585, 1584
900, 975, 976, 1037, 1036, 1524, 1525, 1586, 1585
901, 977, 978, 1039, 1038, 1526, 1527, 1588, 1587
902, 978, 979, 1040, 1039, 1527, 1528, 1589, 1588
903, 979, 980, 1041, 1040, 1528, 1529, 1590, 1589
904, 980, 981, 1042, 1041, 1529, 1530, 1591, 1590
905, 981, 982, 1043, 1042, 1530, 1531, 1592, 1591
906, 982, 983, 1044, 1043, 1531, 1532, 1593, 1592
907, 983, 984, 1045, 1044, 1532, 1533, 1594, 1593
908, 984, 985, 1046, 1045, 1533, 1534, 1595, 1594
909, 985, 986, 1047, 1046, 1534, 1535, 1596, 1595
910, 986, 987, 1048, 1047, 1535, 1536, 1597, 1596
911, 987, 988, 1049, 1048, 1536, 1537, 1598, 1597
912, 988, 989, 1050, 1049, 1537, 1538, 1599, 1598
913, 989, 990, 1051, 1050, 1538, 1539, 1600, 1599
914, 990, 991, 1052, 1051, 1539, 1540, 1601, 1600
915, 991, 992, 1053, 1052, 1540, 1541, 1602, 1601
916, 992, 993, 1054, 1053, 1541, 1542, 1603, 1602
917, 993, 994, 1055, 1054, 1542, 1543, 1604, 1603
918, 994, 995, 1056, 1055, 1543, 1544, 1605, 1604
919, 995, 996, 1057, 1056, 1544, 1545, 1606, 1605
920, 996, 997, 1058, 1057, 1545, 1546, 1607, 1606
921, 997, 998, 1059, 1058, 1546, 1547, 1608, 1607
922, 998, 999, 1060, 1059, 1547, 1548, 1609, 1608
923, 999, 1000, 1061, 1060, 1548, 1549, 1610, 1609
924, 1000, 1001, 1062, 1061, 1549, 1550, 1611, 1610
925, 1001, 1002, 1063, 1062, 1550, 1551, 1612, 1611
926, 1002, 1003, 1064, 1063, 1551, 1552, 1613, 1612
927, 1003, 1004, 1065, 1064, 1552, 1553, 1614, 1613
928, 1004, 1005, 1066, 1065, 1553, 1554, 1615, 1614
929, 1005, 1006, 1067, 1066, 1554, 1555, 1616, 1615
930, 1006, 1007, 1068, 1067, 1555, 1556, 1617, 1616
931, 1007, 1008, 1069, 1068, 1556, 1557, 1618, 1617
932, 1008, 1009, 1070, 1069, 1557, 1558, 1619, 1618
933, 1009, 1010, 1071, 1070, 1558, 1559, 1620, 1619
934, 1010, 1011, 1072, 1071, 1559, 1560, 1621, 1620
935, 1011, 1012, 1073, 1072, 1560, 1561, 1622, 1621
936, 1012, 1013, 1074, 1073, 1561, 1562, 1623, 1622
937, 1013, 1014, 1075, 1074, 1562, 1563, 1624, 1623
938, 1014, 1015, 1076, 1075, 1563, 1564, 1625, 1624
939, 1015, 1016, 1077, 1076, 1564, 1565, 1626, 1625
940, 1016, 1017, 1078, 1077, 1565, 1566, 1627, 1626
941, 1017, 1018, 1079, 1078, 1566, 1567, 1628, 1627
942, 1018, 1019, 1080, 1079, 1567, 1568, 1629, 1628
943, 1019, 1020, 1081, 1080, 1568, 1569, 1630, 1629
944, 1020, 1021, 1082, 1081, 1569, 1570, 1631, 1630
945, 1021, 1022, 1083, 1082, 1570, 1571, 1632, 1631
946, 1022, 1023, 1084, 1083, 1571, 1572, 1633, 1632
947, 1023, 1024, 1085, 1084, 1572, 1573, 1634, 1633
948, 1024, 1025, 1086, 1085, 1573, 1574, 1635, 1634
949, 1025, 1026, 1087, 1086, 1574, 1575, 1636, 1635
950, 1026, 1027, 1088, 1087, 1575, 1576, 1637, 1636
951, 1027, 1028, 1089, 1088, 1576, 1577, 1638, 1637
952, 1028, 1029, 1090, 1089, 1577, 1578, 1639, 1638
953, 1029, 1030, 1091, 1090, 1578, 1579, 1640, 1639
954, 1030, 1031, 1092, 1091, 1579, 1580, 1641, 1640
955, 1031, 1032, 1093, 1092, 1580, 1581, 1642, 1641
956, 1032, 1033, 1094, 1093, 1581, 1582, 1643, 1642
957, 1033, 1034, 1095, 1094, 1582, 1583, 1644, 1643
958, 1034, 1035, 1096, 1095, 1583, 1584, 1645, 1644
959, 1035, 1036, 1097, 1096, 1584, 1585, 1646, 1645
960, 1036, 1037, 1098, 1097, 1585, 1586, 1647, 1646
961, 1099, 1100, 1161, 1160, 1648, 1649, 1710, 1709
962, 1100, 1101, 1162, 1161, 1649, 1650, 1711, 1710
963, 1101, 1102, 1163, 1162, 1650, 1651, 1712, 1711
964, 1102, 1103, 1164, 1163, 1651, 1652, 1713, 1712
965, 1103, 1104, 1165, 1164, 1652, 1653, 1714, 1713
966, 1104, 1105, 1166, 1165, 1653, 1654, 1715, 1714
967, 1105, 1106, 1167, 1166, 1654, 1655, 1716, 1715
968, 1106, 1107, 1168, 1167, 1655, 1656, 1717, 1716
969, 1107, 1108, 1169, 1168, 1656, 1657, 1718, 1717
970, 1108, 1109, 1170, 1169, 1657, 1658, 1719, 1718
971, 1109, 1110, 1171, 1170, 1658, 1659, 1720, 1719
972, 1110, 1111, 1172, 1171, 1659, 1660, 1721, 1720
973, 1111, 1112, 1173, 1172, 1660, 1661, 1722, 1721
974, 1112, 1113, 1174, 1173, 1661, 1662, 1723, 1722
975, 1113, 1114, 1175, 1174, 1662, 1663, 1724, 1723
976, 1114, 1115, 1176, 1175, 1663, 1664, 1725, 1724
977, 1115, 1116, 1177, 1176, 1664, 1665, 1726, 1725
978, 1116, 1117, 1178, 1177, 1665, 1666, 1727, 1726
979, 1117, 1118, 1179, 1178, 1666, 1667, 1728, 1727
980, 1118, 1119, 1180, 1179, 1667, 1668, 1729, 1728
981, 1119, 1120, 1181, 1180, 1668, 1669, 1730, 1729
982, 1120, 1121, 1182, 1181, 1669, 1670, 1731, 1730
983, 1121, 1122, 1183, 1182, 1670, 1671, 1732, 1731
984, 1122, 1123, 1184, 1183, 1671, 1672, 1733, 1732
985, 1123, 1124, 1185, 1184, 1672, 1673, 1734, 1733
986, 1124, 1125, 1186, 1185, 1673, 1674, 1735, 1734
987, 1125, 1126, 1187, 1186, 1674, 1675, 1736, 1735
988, 1126, 1127, 1188, 1187, 1675, 1676, 1737, 1736
989, 1127, 1128, 1189, 1188, 1676, 1677, 1738, 1737
990, 1128, 1129, 1190, 1189, 1677, 1678, 1739, 1738
991, 1129, 1130, 1191, 1190, 1678, 1679, 1740, 1739
992, 1130, 1131, 1192, 1191, 1679, 1680, 1741, 1740
993, 1131, 1132, 1193, 1192, 1680, 1681, 1742, 1741
994, 1132, 1133, 1194, 1193, 1681, 1682, 1743, 1742
995, 1133, 1134, 1195, 1194, 1682, 1683, 1744, 1743
996, 1134, 1135, 1196, 1195, 1683, 1684, 1745, 1744
997, 1135, 1136, 1197, 1196, 1684, 1685, 1746, 1745
998, 1136, 1137, 1198, 1197, 1685, 1686, 1747, 1746
999, 1137, 1138, 1199, 1198, 1686, 1687, 1748, 1747
1000, 1138, 1139, 1200, 1199, 1687, 1688, 1749, 1748
1001, 1139, 1140, 1201, 1200, 1688, 1689, 1750, 1749
1002, 1140, 1141, 1202, 1201, 1689, 1690, 1751, 1750
1003, 1141, 1142, 1203, 1202, 1690, 1691, 1752, 1751
1004, 1142, 1143, 1204, 1203, 1691, 1692, 1753, 1752
1005, 1143, 1144, 1205, 1204, 1692, 1693, 1754, 1753
1006, 1144, 1145, 1206, 1205, 1693, 1694, 1755, 1754
1007, 1145, 1146, 1207, 1206, 1694, 1695, 1756, 1755
1008, 1146, 1147, 1208, 1207, 1695, 1696, 1757, 1756
1009, 1147, 1148, 1209, 1208, 1696, 1697, 1758, 1757
1010, 1148, 1149, 1210, 1209, 1697, 1698, 1759, 1758
1011, 1149, 1150, 1211, 1210, 1698, 1699, 1760, 1759
1012, 1150, 1151, 1212, 1211, 1699, 1700, 1761, 1760
1013, 1151, 1152, 1213, 1212, 1700, 1701, 1762, 1761
1014, 1152, 1153, 1214, 1213, 1701, 1702, 1763, 1762
1015, 1153, 1154, 1215, 1214, 1702, 1703, 1764, 1763
1016, 1154, 1155, 1216, 1215, 1703, 1704, 1765, 1764
1017, 1155, 1156, 1217, 1216, 1704, 1705, 1766, 1765
1018, 1156, 1157, 1218, 1217, 1705, 1706, 1767, 1766
1019, 1157, 1158, 1219, 1218, 1706, 1707, 1768, 1767
1020, 1158, 1159, 1220, 1219, 1707, 1708, 1769, 1768
1021, 1160, 1161, 1222, 1221, 1709, 1710, 1771, 1770
1022, 1161, 1162, 1223, 1222, 1710, 1711, 1772, 1771
1023, 1162, 1163, 1224, 1223, 1711, 1712, 1773, 1772
1024, 1163, 1164, 1225, 1224, 1712, 1713, 1774, 1773
1025, 1164, 1165, 1226, 1225, 1713, 1714, 1775, 1774
1026, 1165, 1166, 1227, 1226, 1714, 1715, 1776, 1775
1027, 1166, 1167, 1228, 1227, 1715, 1716, 1777, 1776
1028, 1167, 1168, 1229, 1228, 1716, 1717, 1778, 1777
1029, 1168, 1169, 1230, 1229, 1717, 1718, 1779, 1778
1030, 1169, 1170, 1231, 1230, 1718, 1719, 1780, 1779
1031, 1170, 1171, 1232, 1231, 1719, 1720, 1781, 1780
1032, 1171, 1172, 1233, 1232, 1720, 1721, 1782, 1781
1033, 1172, 1173, 1234, 1233, 1721, 1722, 1783, 1782
1034, 1173, 1174, 1235, 1234, 1722, 1723, 1784, 1783
1035, 1174, 1175, 1236, 1235, 1723, 1724, 1785, 1784
1036, 1175, 1176, 1237, 1236, 1724, 1725, 1786, 1785
1037, 1176, 1177, 1238, 1237, 1725, 1726, 1787, 1786
1038, 1177, 1178, 1239, 1238, 1726, 1727, 1788, 1787
1039, 1178, 1179, 1240, 1239, 1727, 1728, 1789, 1788
1040, 1179, 1180, 1241, 1240, 1728, 1729, 1790, 1789
1041, 1180, 1181, 1242, 1241, 1729, 1730, 1791, 1790
1042, 1181, 1182, 1243, 1242, 1730, 1731, 1792, 1791
1043, 1182, 1183, 1244, 1243, 1731, 1732, 1793, 1792
1044, 1183, 1184, 1245, 1244, 1732, 1733, 1794, 1793
1045, 1184, 1185, 1246, 1245, 1733, 1734, 1795, 1794
1046, 1185, 1186, 1247, 1246, 1734, 1735, 1796, 1795
1047, 1186, 1187, 1248, 1247, 1735, 1736, 1797, 1796
1048, 1187, 1188, 1249, 1248, 1736, 1737, 1798, 1797
1049, 1188, 1189, 1250, 1249, 1737, 1738, 1799, 1798
1050, 1189, 1190, 1251, 1250, 1738, 1739, 1800, 1799
1051, 1190, 1191, 1252, 1251, 1739, 1740, 1801, 1800
1052, 1191, 1192, 1253, 1252, 1740, 1741, 1802, 1801
1053, 1192, 1193, 1254, 1253, 1741, 1742, 1803, 1802
1054, 1193, 1194, 1255, 1254, 1742, 1743, 1804, 1803
1055, 1194, 1195, 1256, 1255, 1743, 1744, 1805, 1804
1056, 1195, 1196, 1257, 1256, 1744, 1745, 1806, 1805
1057, 1196, 1197, 1258, 1257, 1745, 1746, 1807, 1806
1058, 1197, 1198, 1259, 1258, 1746, 1747, 1808, 1807
1059, 1198, 1199, 1260, 1259, 1747, 1748, 1809, 1808
1060, 1199, 1200, 1261, 1260, 1748, 1749, 1810, 1809
1061, 1200, 1201, 1262, 1261, 1749, 1750, 1811, 1810
1062, 1201, 1202, 1263, 1262, 1750, 1751, 1812, 1811
1063, 1202, 1203, 1264, 1263, 1751, 1752, 1813, 1812
1064, 1203, 1204, 1265, 1264, 1752, 1753, 1814, 1813
1065, 1204, 1205, 1266, 1265, 1753, 1754, 1815, 1814
1066, 1205, 1206, 1267, 1266, 1754, 1755, 1816, 1815
1067, 1206, 1207, 1268, 1267, 1755, 1756, 1817, 1816
1068, 1207, 1208, 1269, 1268, 1756, 1757, 1818, 1817
1069, 1208, 1209, 1270, 1269, 1757, 1758, 1819, 1818
1070, 1209, 1210, 1271, 1270, 1758, 1759, 1820, 1819
1071, 1210, 1211, 1272, 1271, 1759, 1760, 1821, 1820
1072, 1211, 1212, 1273, 1272, 1760, 1761, 1822, 1821
1073, 1212, 1213, 1274, 1273, 1761, 1762, 1823, 1822
1074, 1213, 1214, 1275, 1274, 1762, 1763, 1824, 1823
1075, 1214, 1215, 1276, 1275, 1763, 1764, 1825, 1824
1076, 1215, 1216, 1277, 1276, 1764, 1765, 1826, 1825
1077, 1216, 1217, 1278, 1277, 1765, 1766, 1827, 1826
1078, 1217, 1218, 1279, 1278, 1766, 1767, 1828, 1827
1079, 1218, 1219, 1280, 1279, 1767, 1768, 1829, 1828
1080, 1219, 1220, 1281, 1280, 1768, 1769, 1830, 1829
1081, 1221, 1222, 1283, 1282, 1770, 1771, 1832, 1831
1082, 1222, 1223, 1284, 1283, 1771, 1772, 1833, 1832
1083, 1223, 1224, 1285, 1284, 1772, 1773, 1834, 1833
1084, 1224, 1225, 1286, 1285, 1773, 1774, 1835, 1834
1085, 1225, 1226, 1287, 1286, 1774, 1775, 1836, 1835
1086, 1226, 1227, 1288, 1287, 1775, 1776, 1837, 1836
1087, 1227, 1228, 1289, 1288, 1776, 1777, 1838, 1837
1088, 1228, 1229, 1290, 1289, 1777, 1778, 1839, 1838
1089, 1229, 1230, 1291, 1290, 1778, 1779, 1840, 1839
1090, 1230, 1231, 1292, 1291, 1779, 1780, 1841, 1840
1091, 1231, 1232, 1293, 1292, 1780, 1781, 1842, 1841
1092, 1232, 1233, 1294, 1293, 1781, 1782, 1843, 1842
1093, 1233, 1234, 1295, 1294, 1782, 1783, 1844, 1843
1094, 1234, 1235, 1296, 1295, 1783, 1784, 1845, 1844
1095, 1235, 1236, 1297, 1296, 1784, 1785, 1846, 1845
1096, 1236, 1237, 1298, 1297, 1785, 1786, 1847, 1846
1097, 1237, 1238, 1299, 1298, 1786, 1787, 1848, 1847
1098, 1238, 1239, 1300, 1299, 1787, 1788, 1849, 1848
1099, 1239, 1240, 1301, 1300, 1788, 1789, 1850, 1849
1100, 1240, 1241, 1302, 1301, 1789, 1790, 1851, 1850
1101, 1241, 1242, 1303, 1302, 1790, 1791, 1852, 1851
1102, 1242, 1243, 1304, 1303, 1791, 1792, 1853, 1852
1103, 1243, 1244, 1305, 1304, 1792, 1793, 1854, 1853
1104, 1244, 1245, 1306, 1305, 1793, 1794, 1855, 1854
1105, 1245, 1246, 1307, 1306, 1794, 1795, 1856, 1855
1106, 1246, 1247, 1308, 1307, 1795, 1796, 1857, 1856
1107, 1247, 1248, 1309, 1308, 1796, 1797, 1858, 1857
1108, 1248, 1249, 1310, 1309, 1797, 1798, 1859, 1858
1109, 1249, 1250, 1311, 1310, 1798, 1799, 1860, 1859
1110, 1250, 1251, 1312, 1311, 1799, 1800, 1861, 1860
1111, 1251, 1252, 1313, 1312, 1800, 1801, 1862, 1861
1112, 1252, 1253, 1314, 1313, 1801, 1802, 1863, 1862
1113, 1253, 1254, 1315, 1314, 1802, 1803, 1864, 1863
1114, 1254, 1255, 1316, 1315, 1803, 1804, 1865, 1864
1115, 1255, 1256, 1317, 1316, 1804, 1805, 1866, 1865
1116, 1256, 1257, 1318, 1317, 1805, 1806, 1867, 1866
1117, 1257, 1258, 1319, 1318, 1806, 1807, 1868, 1867
1118, 1258, 1259, 1320, 1319, 1807, 1808, 1869, 1868
1119, 1259, 1260, 1321, 1320, 1808, 1809, 1870, 1869
1120, 1260, 1261, 1322, 1321, 1809, 1810, 1871, 1870
1121, 1261, 1262, 1323, 1322, 1810, 1811, 1872, 1871
1122, 1262, 1263, 1324, 1323, 1811, 1812, 1873, 1872
1123, 1263, 1264, 1325, 1324, 1812, 1813, 1874, 1873
1124, 1264, 1265, 1326, 1325, 1813, 1814, 1875, 1874
1125, 1265, 1266, 1327, 1326, 1814, 1815, 1876, 1875
1126, 1266, 1267, 1328, 1327, 1815, 1816, 1877, 1876
1127, 1267, 1268, 1329, 1328, 1816, 1817, 1878, 1877
1128, 1268, 1269, 1330, 1329, 1817, 1818, 1879, 1878
1129, 1269, 1270, 1331, 1330, 1818, 1819, 1880, 1879
1130, 1270, 1271, 1332, 1331, 1819, 1820, 1881, 1880
1131, 1271, 1272, 1333, 1332, 1820, 1821, 1882, 1881
1132, 1272, 1273, 1334, 1333, 1821, 1822, 1883, 1882
1133, 1273, 1274, 1335, 1334, 1822, 1823, 1884, 1883
1134, 1274, 1275, 1336, 1335, 1823, 1824, 1885, 1884
1135, 1275, 1276, 1337, 1336, 1824, 1825, 1886, 1885
1136, 1276, 1277, 1338, 1337, 1825, 1826, 1887, 1886
1137, 1277, 1278, 1339, 1338, 1826, 1827, 1888, 1887
1138, 1278, 1279, 1340, 1339, 1827, 1828, 1889, 1888
1139, 1279, 1280, 1341, 1340, 1828, 1829, 1890, 1889
1140, 1280, 1281, 1342, 1341, 1829, 1830, 1891, 1890
1141, 1282, 1283, 1344, 1343, 1831, 1832, 1893, 1892
1142, 1283, 1284, 1345, 1344, 1832, 1833, 1894, 1893
1143, 1284, 1285, 1346, 1345, 1833, 1834, 1895, 1894
1144, 1285, 1286, 1347, 1346, 1834, 1835, 1896, 1895
1145, 1286, 1287, 1348, 1347, 1835, 1836, 1897, 1896
1146, 1287, 1288, 1349, 1348, 1836, 1837, 1898, 1897
1147, 1288, 1289, 1350, 1349, 1837, 1838, 1899, 1898
1148, 1289, 1290, 1351, 1350, 1838, 1839, 1900, 1899
1149, 1290, 1291, 1352, 1351, 1839, 1840, 1901, 1900
1150, 1291, 1292, 1353, 1352, 1840, 1841, 1902, 1901
1151, 1292, 1293, 1354, 1353, 1841, 1842, 1903, 1902
1152, 1293, 1294, 1355, 1354, 1842, 1843, 1904, 1903
1153, 1294, 1295, 1356, 1355, 1843, 1844, 1905, 1904
1154, 1295, 1296, 1357, 1356, 1844, 1845, 1906, 1905
1155, 1296, 1297, 1358, 1357, 1845, 1846, 1907, 1906
1156, 1297, 1298, 1359, 1358, 1846, 1847, 1908, 1907
1157, 1298, 1299, 1360, 1359, 1847, 1848, 1909, 1908
1158, 1299, 1300, 1361, 1360, 1848, 1849, 1910, 1909
1159, 1300, 1301, 1362, 1361, 1849, 1850, 1911, 1910
1160, 1301, 1302, 1363, 1362, 1850, 1851, 1912, 1911
1161, 1302, 1303, 1364, 1363, 1851, 1852, 1913, 1912
1162, 1303, 1304, 1365, 1364, 1852, 1853, 1914, 1913
1163, 1304, 1305, 1366, 1365, 1853, 1854, 1915, 1914
1164, 1305, 1306, 1367, 1366, 1854, 1855, 1916, 1915
1165, 1306, 1307, 1368, 1367, 1855, 1856, 1917, 1916
1166, 1307, 1308, 1369, 1368, 1856, 1857, 1918, 1917
1167, 1308, 1309, 1370, 1369, 1857, 1858, 1919, 1918
1168, 1309, 1310, 1371, 1370, 1858, 1859, 1920, 1919
1169, 1310, 1311, 1372, 1371, 1859, 1860, 1921, 1920
1170, 1311, 1312, 1373, 1372, 1860, 1861, 1922, 1921
1171, 1312, 1313, 1374, 1373, 1861, 1862, 1923, 1922
1172, 1313, 1314, 1375, 1374, 1862, 1863, 1924, 1923
1173, 1314, 1315, 1376, 1375, 1863, 1864, 1925, 1924
1174, 1315, 1316, 1377, 1376, 1864, 1865, 1926, 1925
1175, 1316, 1317, 1378, 1377, 1865, 1866, 1927, 1926
1176, 1317, 1318, 1379, 1378, 1866, 1867, 1928, 1927
1177, 1318, 1319, 1380, 1379, 1867, 1868, 1929, 1928
1178, 1319, 1320, 1381, 1380, 1868, 1869, 1930, 1929
1179, 1320, 1321, 1382, 1381, 1869, 1870, 1931, 1930
1180, 1321, 1322, 1383, 1382, 1870, 1871, 1932, 1931
1181, 1322, 1323, 1384, 1383, 1871, 1872, 1933, 1932
1182, 1323, 1324, 1385, 1384, 1872, 1873, 1934, 1933
1183, 1324, 1325, 1386, 1385, 1873, 1874, 1935, 1934
1184, 1325, 1326, 1387, 1386, 1874, 1875, 1936, 1935
1185, 1326, 1327, 1388, 1387, 1875, 1876, 1937, 1936
1186, 1327, 1328, 1389, 1388, 1876, 1877, 1938, 1937
1187, 1328, 1329, 1390, 1389, 1877, 1878, 1939, 1938
1188, 1329, 1330, 1391, 1390, 1878, 1879, 1940, 1939
1189, 1330, 1331, 1392, 1391, 1879, 1880, 1941, 1940
1190, 1331, 1332, 1393, 1392, 1880, 1881, 1942, 1941
1191, 1332, 1333, 1394, 1393, 1881, 1882, 1943, 1942
1192, 1333, 1334, 1395, 1394, 1882, 1883, 1944, 1943
1193, 1334, 1335, 1396, 1395, 1883, 1884, 1945, 1944
1194, 1335, 1336, 1397, 1396, 1884, 1885, 1946, 1945
1195, 1336, 1337, 1398, 1397, 1885, 1886, 1947, 1946
1196, 1337, 1338, 1399, 1398, 1886, 1887, 1948, 1947
1197, 1338, 1339, 1400, 1399, 1887, 1888, 1949, 1948
1198, 1339, 1340, 1401, 1400, 1888, 1889, 1950, 1949
1199, 1340, 1341, 1402, 1401, 1889, 1890, 1951, 1950
1200, 1341, 1342, 1403, 1402, 1890, 1891, 1952, 1951
1201, 1343, 1344, 1405, 1404, 1892, 1893, 1954, 1953
1202, 1344, 1345, 1406, 1405, 1893, 1894, 1955, 1954
1203, 1345, 1346, 1407, 1406, 1894, 1895, 1956, 1955
1204, 1346, 1347, 1408, 1407, 1895, 1896, 1957, 1956
1205, 1347, 1348, 1409, 1408, 1896, 1897, 1958, 1957
1206, 1348, 1349, 1410, 1409, 1897, 1898, 1959, 1958
1207, 1349, 1350, 1411, 1410, 1898, 1899, 1960, 1959
1208, 1350, 1351, 1412, 1411, 1899, 1900, 1961, 1960
1209, 1351, 1352, 1413, 1412, 1900, 1901, 1962, 1961
1210, 1352, 1353, 1414, 1413, 1901, 1902, 1963, 1962
1211, 1353, 1354, 1415, 1414, 1902, 1903, 1964, 1963
1212, 1354, 1355, 1416, 1415, 1903, 1904, 1965, 1964
1213, 1355, 1356, 1417, 1416, 1904, 1905, 1966, 1965
1214, 1356, 1357, 1418, 1417, 1905, 1906, 1967, 1966
1215, 1357, 1358, 1419, 1418, 1906, 1907, 1968, 1967
1216, 1358, 1359, 1420, 1419, 1907, 1908, 1969, 1968
1217, 1359, 1360, 1421, 1420, 1908, 1909, 1970, 1969
1218, 1360, 1361, 1422, 1421, 1909, 1910, 1971, 1970
1219, 1361, 1362, 1423, 1422, 1910, 1911, 1972, 1971
1220, 1362, 1363, 1424, 1423, 1911, 1912, 1973, 1972
1221, 1363, 1364, 1425, 1424, 1912, 1913, 1974, 1973
1222, 1364, 1365, 1426, 1425, 1913, 1914, 1975, 1974
1223, 1365, 1366, 1427, 1426, 1914, 1915, 1976, 1975
1224, 1366, 1367, 1428, 1427, 1915, 1916, 1977, 1976
1225, 1367, 1368, 1429, 1428, 1916, 1917, 1978, 1977
1226, 1368, 1369, 1430, 1429, 1917, 1918, 1979, 1978
1227, 1369, 1370, 1431, 1430, 1918, 1919, 1980, 1979
1228, 1370, 1371, 1432, 1431, 1919, 1920, 1981, 1980
1229, 1371, 1372, 1433, 1432, 1920, 1921, 1982, 1981
1230, 1372, 1373, 1434, 1433, 1921, 1922, 1983, 1982
1231, 1373, 1374, 1435, 1434, 1922, 1923, 1984, 1983
1232, 1374, 1375, 1436, 1435, 1923, 1924, 1985, 1984
1233, 1375, 1376, 1437, 1436, 1924, 1925, 1986, 1985
1234, 1376, 1377, 1438, 1437, 1925, 1926, 1987, 1986
1235, 1377, 1378, 1439, 1438, 1926, 1927, 1988, 1987
1236, 1378, 1379, 1440, 1439, 1927, 1928, 1989, 1988
1237, 1379, 1380, 1441, 1440, 1928, 1929, 1990, 1989
1238, 1380, 1381, 1442, 1441, 1929, 1930, 1991, 1990
1239, 1381, 1382, 1443, 1442, 1930, 1931, 1992, 1991
1240, 1382, 1383, 1444, 1443, 1931, 1932, 1993, 1992
1241, 1383, 1384, 1445, 1444, 1932, 1933, 1994, 1993
1242, 1384, 1385, 1446, 1445, 1933, 1934, 1995, 1994
1243, 1385, 1386, 1447, 1446, 1934, 1935, 1996, 1995
1244, 1386, 1387, 1448, 1447, 1935, 1936, 1997, 1996
1245, 1387, 1388, 1449, 1448, 1936, 1937, 1998, 1997
1246, 1388, 1389, 1450, 1449, 1937, 1938, 1999, 1998
1247, 1389, 1390, 1451, 1450, 1938, 1939, 2000, 1999
1248, 1390, 1391, 1452, 1451, 1939, 1940, 2001, 2000
1249, 1391, 1392, 1453, 1452, 1940, 1941, 2002, 2001
1250, 1392, 1393, 1454, 1453, 1941, 1942, 2003, 2002
1251, 1393, 1394, 1455, 1454, 1942, 1943, 2004, 2003
1252, 1394, 1395, 1456, 1455, 1943, 1944, 2005, 2004
1253, 1395, 1396, 1457, 1456, 1944, 1945, 2006, 2005
1254, 1396, 1397, 1458, 1457, 1945, 1946, 2007, 2006
1255, 1397, 1398, 1459, 1458, 1946, 1947, 2008, 2007
1256, 1398, 1399, 1460, 1459, 1947, 1948, 2009, 2008
1257, 1399, 1400, 1461, 1460, 1948, 1949, 2010, 2009
1258, 1400, 1401, 1462, 1461, 1949, 1950, 2011, 2010
1259, 1401, 1402, 1463, 1462, 1950, 1951, 2012, 2011
1260, 1402, 1403, 1464, 1463, 1951, 1952, 2013, 2012
1261, 1404, 1405, 1466, 1465, 1953, 1954, 2015, 2014
1262, 1405, 1406, 1467, 1466, 1954, 1955, 2016, 2015
1263, 1406, 1407, 1468, 1467, 1955, 1956, 2017, 2016
1264, 1407, 1408, 1469, 1468, 1956, 1957, 2018, 2017
1265, 1408, 1409, 1470, 1469, 1957, 1958, 2019, 2018
1266, 1409, 1410, 1471, 1470, 1958, 1959, 2020, 2019
1267, 1410, 1411, 1472, 1471, 1959, 1960, 2021, 2020
1268, 1411, 1412, 1473, 1472, 1960, 1961, 2022, 2021
1269, 1412, 1413, 1474, 1473, 1961, 1962, 2023, 2022
1270, 1413, 1414, 1475, 1474, 1962, 1963, 2024, 2023
1271, 1414, 1415, 1476, 1475, 1963, 1964, 2025, 2024
1272, 1415, 1416, 1477, 1476, 1964, 1965, 2026, 2025
1273, 1416, 1417, 1478, 1477, 1965, 1966, 2027, 2026
1274, 1417, 1418, 1479, 1478, 1966, 1967, 2028, 2027
1275, 1418, 1419, 1480, 1479, 1967, 1968, 2029, 2028
1276, 1419, 1420, 1481, 1480, 1968, 1969, 2030, 2029
1277, 1420, 1421, 1482, 1481, 1969, 1970, 2031, 2030
1278, 1421, 1422, 1483, 1482, 1970, 1971, 2032, 2031
1279, 1422, 1423, 1484, 1483, 1971, 1972, 2033, 2032
1280, 1423, 1424, 1485, 1484, 1972, 1973, 2034, 2033
1281, 1424, 1425, 1486, 1485, 1973, 1974, 2035, 2034
1282, 1425, 1426, 1487, 1486, 1974, 1975, 2036, 2035
1283, 1426, 1427, 1488, 1487, 1975, 1976, 2037, 2036
1284, 1427, 1428, 1489, 1488, 1976, 1977, 2038, 2037
1285, 1428, 1429, 1490, 1489, 1977, 1978, 2039, 2038
1286, 1429, 1430, 1491, 1490, 1978, 1979, 2040, 2039
1287, 1430, 1431, 1492, 1491, 1979, 1980, 2041, 2040
1288, 1431, 1432, 1493, 1492, 1980, 1981, 2042, 2041
1289, 1432, 1433, 1494, 1493, 1981, 1982, 2043, 2042
1290, 1433, 1434, 1495, 1494, 1982, 1983, 2044, 2043
1291, 1434, 1435, 1496, 1495, 1983, 1984, 2045, 2044
1292, 1435, 1436, 1497, 1496, 1984, 1985, 2046, 2045
1293, 1436, 1437, 1498, 1497, 1985, 1986, 2047, 2046
1294, 1437, 1438, 1499, 1498, 1986, 1987, 2048, 2047
1295, 1438, 1439, 1500, 1499, 1987, 1988, 2049, 2048
1296, 1439, 1440, 1501, 1500, 1988, 1989, 2050, 2049
1297, 1440, 1441, 1502, 1501, 1989, 1990, 2051, 2050
1298, 1441, 1442, 1503, 1502, 1990, 1991, 2052, 2051
1299, 1442, 1443, 1504, 1503, 1991, 1992, 2053, 2052
1300, 1443, 1444, 1505, 1504, 1992, 1993, 2054, 2053
1301, 1444, 1445, 1506, 1505, 1993, 1994, 2055, 2054
1302, 1445, 1446, 1507, 1506, 1994, 1995, 2056, 2055
1303, 1446, 1447, 1508, 1507, 1995, 1996, 2057, 2056
1304, 1447, 1448, 1509, 1508, 1996, 1997, 2058, 2057
1305, 1448, 1449, 1510, 1509, 1997, 1998, 2059, 2058
1306, 1449, 1450, 1511, 1510, 1998, 1999, 2060, 2059
1307, 1450, 1451, 1512, 1511, 1999, 2000, 2061, 2060
1308, 1451, 1452, 1513, 1512, 2000, 2001, 2062, 2061
1309, 1452, 1453, 1514, 1513, 2001, 2002, 2063, 2062
1310, 1453, 1454, 1515, 1514, 2002, 2003, 2064, 2063
1311, 1454, 1455, 1516, 1515, 2003, 2004, 2065, 2064
1312, 1455, 1456, 1517, 1516, 2004, 2005, 2066, 2065
1313, 1456, 1457, 1518, 1517, 2005, 2006, 2067, 2066
1314, 1457, 1458, 1519, 1518, 2006, 2007, 2068, 2067
1315, 1458, 1459, 1520, 1519, 2007, 2008, 2069, 2068
1316, 1459, 1460, 1521, 1520, 2008, 2009, 2070, 2069
1317, 1460, 1461, 1522, 1521, 2009, 2010, 2071, 2070
1318, 1461, 1462, 1523, 1522, 2010, 2011, 2072, 2071
1319, 1462, 1463, 1524, 1523, 2011, 2012, 2073, 2072
1320, 1463, 1464, 1525, 1524, 2012, 2013, 2074, 2073
1321, 1465, 1466, 1527, 1526, 2014, 2015, 2076, 2075
1322, 1466, 1467, 1528, 1527, 2015, 2016, 2077, 2076
1323, 1467, 1468, 1529, 1528, 2016, 2017, 2078, 2077
1324, 1468, 1469, 1530, 1529, 2017, 2018, 2079, 2078
1325, 1469, 1470, 1531, 1530, 2018, 2019, 2080, 2079
1326, 1470, 1471, 1532, 1531, 2019, 2020, 2081, 2080
1327, 1471, 1472, 1533, 1532, 2020, 2021, 2082, 2081
1328, 1472, 1473, 1534, 1533, 2021, 2022, 2083, 2082
1329, 1473, 1474, 1535, 1534, 2022, 2023, 2084, 2083
1330, 1474, 1475, 1536, 1535, 2023, 2024, 2085, 2084
1331, 1475, 1476, 1537, 1536, 2024, 2025, 2086, 2085
1332, 1476, 1477, 1538, 1537, 2025, 2026, 2087, 2086
1333, 1477, 1478, 1539, 1538, 2026, 2027, 2088, 2087
1334, 1478, 1479, 1540, 1539, 2027, 2028, 2089, 2088
1335, 1479, 1480, 1541, 1540, 2028, 2029, 2090, 2089
1336, 1480, 1481, 1542, 1541, 2029, 2030, 2091, 2090
1337, 1481, 1482, 1543, 1542, 2030, 2031, 2092, 2091
1338, 1482, 1483, 1544, 1543, 2031, 2032, 2093, 2092
1339, 1483, 1484, 1545, 1544, 2032, 2033, 2094, 2093
1340, 1484, 1485, 1546, 1545, 2033, 2034, 2095, 2094
1341, 1485, 1486, 1547, 1546, 2034, 2035, 2096, 2095
1342, 1486, 1487, 1548, 1547, 2035, 2036, 2097, 2096
1343, 1487, 1488, 1549, 1548, 2036, 2037, 2098, 2097
1344, 1488, 1489, 1550, 1549, 2037, 2038, 2099, 2098
1345, 1489, 1490, 1551, 1550, 2038, 2039, 2100, 2099
1346, 1490, 1491, 1552, 1551, 2039, 2040, 2101, 2100
1347, 1491, 1492, 1553, 1552, 2040, 2041, 2102, 2101
1348, 1492, 1493, 1554, 1553, 2041, 2042, 2103, 2102
1349, 1493, 1494, 1555, 1554, 2042, 2043, 2104, 2103
1350, 1494, 1495, 1556, 1555, 2043, 2044, 2105, 2104
1351, 1495, 1496, 1557, 1556, 2044, 2045, 2106, 2105
1352, 1496, 1497, 1558, 1557, 2045, 2046, 2107, 2106
1353, 1497, 1498, 1559, 1558, 2046, 2047, 2108, 2107
1354, 1498, 1499, 1560, 1559, 2047, 2048, 2109, 2108
1355, 1499, 1500, 1561, 1560, 2048, 2049, 2110, 2109
1356, 1500, 1501, 1562, 1561, 2049, 2050, 2111, 2110
1357, 1501, 1502, 1563, 1562, 2050, 2051, 2112, 2111
1358, 1502, 1503, 1564, 1563, 2051, 2052, 2113, 2112
1359, 1503, 1504, 1565, 1564, 2052, 2053, 2114, 2113
1360, 1504, 1505, 1566, 1565, 2053, 2054, 2115, 2114
1361, 1505, 1506, 1567, 1566, 2054, 2055, 2116, 2115
1362, 1506, 1507, 1568, 1567, 2055, 2056, 2117, 2116
1363, 1507, 1508, 1569, 1568, 2056, 2057, 2118, 2117
1364, 1508, 1509, 1570, 1569, 2057, 2058, 2119, 2118
1365, 1509, 1510, 1571, 1570, 2058, 2059, 2120, 2119
1366, 1510, 1511, 1572, 1571, 2059, 2060, 2121, 2120
1367, 1511, 1512, 1573, 1572, 2060, 2061, 2122, 2121
1368, 1512, 1513, 1574, 1573, 2061, 2062, 2123, 2122
1369, 1513, 1514, 1575, 1574, 2062, 2063, 2124, 2123
1370, 1514, 1515, 1576, 1575, 2063, 2064, 2125, 2124
1371, 1515, 1516, 1577, 1576, 2064, 2065, 2126, 2125
1372, 1516, 1517, 1578, 1577, 2065, 2066, 2127, 2126
1373, 1517, 1518, 1579, 1578, 2066, 2067, 2128, 2127
1374, 1518, 1519, 1580, 1579, 2067, 2068, 2129, 2128
1375, 1519, 1520, 1581, 1580, 2068, 2069, 2130, 2129
1376, 1520, 1521, 1582, 1581, 2069, 2070, 2131, 2130
1377, 1521, 1522, 1583, 1582, 2070, 2071, 2132, 2131
1378, 1522, 1523, 1584, 1583, 2071, 2072, 2133, 2132
1379, 1523, 1524, 1585, 1584, 2072, 2073, 2134, 2133
1380, 1524, 1525, 1586, 1585, 2073, 2074, 2135, 2134
1381, 1526, 1527, 1588, 1587, 2075, 2076, 2137, 2136
1382, 1527, 1528, 1589, 1588, 2076, 2077, 2138, 2137
1383, 1528, 1529, 1590, 1589, 2077, 2078, 2139, 2138
1384, 1529, 1530, 1591, 1590, 2078, 2079, 2140, 2139
1385, 1530, 1531, 1592, 1591, 2079, 2080, 2141, 2140
1386, 1531, 1532, 1593, 1592, 2080, 2081, 2142, 2141
1387, 1532, 1533, 1594, 1593, 2081, 2082, 2143, 2142
1388, 1533, 1534, 1595, 1594, 2082, 2083, 2144, 2143
1389, 1534, 1535, 1596, 1595, 2083, 2084, 2145, 2144
1390, 1535, 1536, 1597, 1596, 2084, 2085, 2146, 2145
1391, 1536, 1537, 1598, 1597, 2085, 2086, 2147, 2146
1392, 1537, 1538, 1599, 1598, 2086, 2087, 2148, 2147
1393, 1538, 1539, 1600, 1599, 2087, 2088, 2149, 2148
1394, 1539, 1540, 1601, 1600, 2088, 2089, 2150, 2149
1395, 1540, 1541, 1602, 1601, 2089, 2090, 2151, 2150
1396, 1541, 1542, 1603, 1602, 2090, 2091, 2152, 2151
1397, 1542, 1543, 1604, 1603, 2091, 2092, 2153, 2152
1398, 1543, 1544, 1605, 1604, 2092, 2093, 2154, 2153
1399, 1544, 1545, 1606, 1605, 2093, 2094, 2155, 2154
1400, 1545, 1546, 1607, 1606, 2094, 2095, 2156, 2155
1401, 1546, 1547, 1608, 1607, 2095, 2096, 2157, 2156
1402, 1547, 1548, 1609, 1608, 2096, 2097, 2158, 2157
1403, 1548, 1549, 1610, 1609, 2097, 2098, 2159, 2158
1404, 1549, 1550, 1611, 1610, 2098, 2099, 2160, 2159
1405, 1550, 1551, 1612, 1611, 2099, 2100, 2161, 2160
1406, 1551, 1552, 1613, 1612, 2100, 2101, 2162, 2161
1407, 1552, 1553, 1614, 1613, 2101, 2102, 2163, 2162
1408, 1553, 1554, 1615, 1614, 2102, 2103, 2164, 2163
1409, 1554, 1555, 1616, 1615, 2103, 2104, 2165, 2164
1410, 1555, 1556, 1617, 1616, 2104, 2105, 2166, 2165
1411, 1556, 1557, 1618, 1617, 2105, 2106, 2167, 2166
1412, 1557, 1558, 1619, 1618, 2106, 2107, 2168, 2167
1413, 1558, 1559, 1620, 1619, 2107, 2108, 2169, 2168
1414, 1559, 1560, 1621, 1620, 2108, 2109, 2170, 2169
1415, 1560, 1561, 1622, 1621, 2109, 2110, 2171, 2170
1416, 1561, 1562, 1623, 1622, 2110, 2111, 2172, 2171
1417, 1562, 1563, 1624, 1623, 2111, 2112, 2173, 2172
1418, 1563, 1564, 1625, 1624, 2112, 2113, 2174, 2173
1419, 1564, 1565, 1626, 1625, 2113, 2114, 2175, 2174
1420, 1565, 1566, 1627, 1626, 2114, 2115, 2176, 2175
1421, 1566, 1567, 1628, 1627, 2115, 2116, 2177, 2176
1422, 1567, 1568, 1629, 1628, 2116, 2117, 2178, 2177
1423, 1568, 1569, 1630, 1629, 2117, 2118, 2179, 2178
1424, 1569, 1570, 1631, 1630, 2118, 2119, 2180, 2179
1425, 1570, 1571, 1632, 1631, 2119, 2120, 2181, 2180
1426, 1571, 1572, 1633, 1632, 2120, 2121, 2182, 2181
1427, 1572, 1573, 1634, 1633, 2121, 2122, 2183, 2182
1428, 1573, 1574, 1635, 1634, 2122, 2123, 2184, 2183
1429, 1574, 1575, 1636, 1635, 2123, 2124, 2185, 2184
1430, 1575, 1576, 1637, 1636, 2124, 2125, 2186, 2185
1431, 1576, 1577, 1638, 1637, 2125, 2126, 2187, 2186
1432, 1577, 1578, 1639, 1638, 2126, 2127, 2188, 2187
1433, 1578, 1579, 1640, 1639, 2127, 2128, 2189, 2188
1434, 1579, 1580, 1641, 1640, 2128, 2129, 2190, 2189
1435, 1580, 1581, 1642, 1641, 2129, 2130, 2191, 2190
1436, 1581, 1582, 1643, 1642, 2130, 2131, 2192, 2191
1437, 1582, 1583, 1644, 1643, 2131, 2132, 2193, 2192
1438, 1583, 1584, 1645, 1644, 2132, 2133, 2194, 2193
1439, 1584, 1585, 1646, 1645, 2133, 2134, 2195, 2194
1440, 1585, 1586, 1647, 1646, 2134, 2135, 2196, 2195
1441, 1648, 1649, 1710, 1709, 2197, 2198, 2259, 2258
1442, 1649, 1650, 1711, 1710, 2198, 2199, 2260, 2259
1443, 1650, 1651, 1712, 1711, 2199, 2200, 2261, 2260
1444, 1651, 1652, 1713, 1712, 2200, 2201, 2262, 2261
1445, 1652, 1653, 1714, 1713, 2201, 2202, 2263, 2262
1446, 1653, 1654, 1715, 1714, 2202, 2203, 2264, 2263
1447, 1654, 1655, 1716, 1715, 2203, 2204, 2265, 2264
1448, 1655, 1656, 1717, 1716, 2204, 2205, 2266, 2265
1449, 1656, 1657, 1718, 1717, 2205, 2206, 2267, 2266
1450, 1657, 1658, 1719, 1718, 2206, 2207, 2268, 2267
1451, 1658, 1659, 1720, 1719, 2207, 2208, 2269, 2268
1452, 1659, 1660, 1721, 1720, 2208, 2209, 2270, 2269
1453, 1660, 1661, 1722, 1721, 2209, 2210, 2271, 2270
1454, 1661, 1662, 1723, 1722, 2210, 2211, 2272, 2271
1455, 1662, 1663, 1724, 1723, 2211, 2212, 2273, 2272
1456, 1663, 1664, 1725, 1724, 2212, 2213, 2274, 2273
1457, 1664, 1665, 1726, 1725, 2213, 2214, 2275, 2274
1458, 1665, 1666, 1727, 1726, 2214, 2215, 2276, 2275
1459, 1666, 1667, 1728, 1727, 2215, 2216, 2277, 2276
1460, 1667, 1668, 1729, 1728, 2216, 2217, 2278, 2277
1461, 1668, 1669, 1730, 1729, 2217, 2218, 2279, 2278
1462, 1669, 1670, 1731, 1730, 2218, 2219, 2280, 2279
1463, 1670, 1671, 1732, 1731, 2219, 2220, 2281, 2280
1464, 1671, 1672, 1733, 1732, 2220, 2221, 2282, 2281
1465, 1672, 1673, 1734, 1733, 2221, 2222, 2283, 2282
1466, 1673, 1674, 1735, 1734, 2222, 2223, 2284, 2283
1467, 1674, 1675, 1736, 1735, 2223, 2224, 2285, 2284
1468, 1675, 1676, 1737, 1736, 2224, 2225, 2286, 2285
1469, 1676, 1677, 1738, 1737, 2225, 2226, 2287, 2286
1470, 1677, 1678, 1739, 1738, 2226, 2227, 2288, 2287
1471, 1678, 1679, 1740, 1739, 2227, 2228, 2289, 2288
1472, 1679, 1680, 1741, 1740, 2228, 2229, 2290, 2289
1473, 1680, 1681, 1742, 1741, 2229, 2230, 2291, 2290
1474, 1681, 1682, 1743, 1742, 2230, 2231, 2292, 2291
1475, 1682, 1683, 1744, 1743, 2231, 2232, 2293, 2292
1476, 1683, 1684, 1745, 1744, 2232, 2233, 2294, 2293
1477, 1684, 1685, 1746, 1745, 2233, 2234, 2295, 2294
1478, 1685, 1686, 1747, 1746, 2234, 2235, 2296, 2295
1479, 1686, 1687, 1748, 1747, 2235, 2236, 2297, 2296
1480, 1687, 1688, 1749, 1748, 2236, 2237, 2298, 2297
1481, 1688, 1689, 1750, 1749, 2237, 2238, 2299, 2298
1482, 1689, 1690, 1751, 1750, 2238, 2239, 2300, 2299
1483, 1690, 1691, 1752, 1751, 2239, 2240, 2301, 2300
1484, 1691, 1692, 1753, 1752, 2240, 2241, 2302, 2301
1485, 1692, 1693, 1754, 1753, 2241, 2242, 2303, 2302
1486, 1693, 1694, 1755, 1754, 2242, 2243, 2304, 2303
1487, 1694, 1695, 1756, 1755, 2243, 2244, 2305, 2304
1488, 1695, 1696, 1757, 1756, 2244, 2245, 2306, 2305
1489, 1696, 1697, 1758, 1757, 2245, 2246, 2307, 2306
1490, 1697, 1698, 1759, 1758, 2246, 2247, 2308, 2307
1491, 1698, 1699, 1760, 1759, 2247, 2248, 2309, 2308
1492, 1699, 1700, 1761, 1760, 2248, 2249, 2310, 2309
1493, 1700, 1701, 1762, 1761, 2249, 2250, 2311, 2310
1494, 1701, 1702, 1763, 1762, 2250, 2251, 2312, 2311
1495, 1702, 1703, 1764, 1763, 2251, 2252, 2313, 2312
1496, 1703, 1704, 1765, 1764, 2252, 2253, 2314, 2313
1497, 1704, 1705, 1766, 1765, 2253, 2254, 2315, 2314
1498, 1705, 1706, 1767, 1766, 2254, 2255, 2316, 2315
1499, 1706, 1707, 1768, 1767, 2255, 2256, 2317, 2316
1500, 1707, 1708, 1769, 1768, 2256, 2257, 2318, 2317
1501, 1709, 1710, 1771, 1770, 2258, 2259, 2320, 2319
1502, 1710, 1711, 1772, 1771, 2259, 2260, 2321, 2320
1503, 1711, 1712, 1773, 1772, 2260, 2261, 2322, 2321
1504, 1712, 1713, 1774, 1773, 2261, 2262, 2323, 2322
1505, 1713, 1714, 1775, 1774, 2262, 2263, 2324, 2323
1506, 1714, 1715, 1776, 1775, 2263, 2264, 2325, 2324
1507, 1715, 1716, 1777, 1776, 2264, 2265, 2326, 2325
1508, 1716, 1717, 1778, 1777, 2265, 2266, 2327, 2326
1509, 1717, 1718, 1779, 1778, 2266, 2267, 2328, 2327
1510, 1718, 1719, 1780, 1779, 2267, 2268, 2329, 2328
1511, 1719, 1720, 1781, 1780, 2268, 2269, 2330, 2329
1512, 1720, 1721, 1782, 1781, 2269, 2270, 2331, 2330
1513, 1721, 1722, 1783, 1782, 2270, 2271, 2332, 2331
1514, 1722, 1723, 1784, 1783, 2271, 2272, 2333, 2332
1515, 1723, 1724, 1785, 1784, 2272, 2273, 2334, 2333
1516, 1724, 1725, 1786, 1785, 2273, 2274, 2335, 2334
1517, 1725, 1726, 1787, 1786, 2274, 2275, 2336, 2335
1518, 1726, 1727, 1788, 1787, 2275, 2276, 2337, 2336
1519, 1727, 1728, 1789, 1788, 2276, 2277, 2338, 2337
1520, 1728, 1729, 1790, 1789, 2277, 2278, 2339, 2338
1521, 1729, 1730, 1791, 1790, 2278, 2279, 2340, 2339
1522, 1730, 1731, 1792, 1791, 2279, 2280, 2341, 2340
1523, 1731, 1732, 1793, 1792, 2280, 2281, 2342, 2341
1524, 1732, 1733, 1794, 1793, 2281, 2282, 2343, 2342
1525, 1733, 1734, 1795, 1794, 2282, 2283, 2344, 2343
1526, 1734, 1735, 1796, 1795, 2283, 2284, 2345, 2344
1527, 1735, 1736, 1797, 1796, 2284, 2285, 2346, 2345
1528, 1736, 1737, 1798, 1797, 2285, 2286, 2347, 2346
1529, 1737, 1738, 1799, 1798, 2286, 2287, 2348, 2347
1530, 1738, 1739, 1800, 1799, 2287, 2288, 2349, 2348
1531, 1739, 1740, 1801, 1800, 2288, 2289, 2350, 2349
1532, 1740, 1741, 1802, 1801, 2289, 2290, 2351, 2350
1533, 1741, 1742, 1803, 1802, 2290, 2291, 2352, 2351
1534, 1742, 1743, 1804, 1803, 2291, 2292, 2353, 2352
1535, 1743, 1744, 1805, 1804, 2292, 2293, 2354, 2353
1536, 1744, 1745, 1806, 1805, 2293, 2294, 2355, 2354
1537, 1745, 1746, 1807, 1806, 2294, 2295, 2356, 2355
1538, 1746, 1747, 1808, 1807, 2295, 2296, 2357, 2356
1539, 1747, 1748, 1809, 1808, 2296, 2297, 2358, 2357
1540, 1748, 1749, 1810, 1809, 2297, 2298, 2359, 2358
1541, 1749, 1750, 1811, 1810, 2298, 2299, 2360, 2359
1542, 1750, 1751, 1812, 1811, 2299, 2300, 2361, 2360
1543, 1751, 1752, 1813, 1812, 2300, 2301, 2362, 2361
1544, 1752, 1753, 1814, 1813, 2301, 2302, 2363, 2362
1545, 1753, 1754, 1815, 1814, 2302, 2303, 2364, 2363
1546, 1754, 1755, 1816, 1815, 2303, 2304, 2365, 2364
1547, 1755, 1756, 1817, 1816, 2304, 2305, 2366, 2365
1548, 1756, 1757, 1818, 1817, 2305, 2306, 2367, 2366
1549, 1757, 1758, 1819, 1818, 2306, 2307, 2368, 2367
1550, 1758, 1759, 1820, 1819, 2307, 2308, 2369, 2368
1551, 1759, 1760, 1821, 1820, 2308, 2309, 2370, 2369
1552, 1760, 1761, 1822, 1821, 2309, 2310, 2371, 2370
1553, 1761, 1762, 1823, 1822, 2310, 2311, 2372, 2371
1554, 1762, 1763, 1824, 1823, 2311, 2312, 2373, 2372
1555, 1763, 1764, 1825, 1824, 2312, 2313, 2374, 2373
1556, 1764, 1765, 1826, 1825, 2313, 2314, 2375, 2374
1557, 1765, 1766, 1827, 1826, 2314, 2315, 2376, 2375
1558, 1766, 1767, 1828, 1827, 2315, 2316, 2377, 2376
1559, 1767, 1768, 1829, 1828, 2316, 2317, 2378, 2377
1560, 1768, 1769, 1830, 1829, 2317, 2318, 2379, 2378
1561, 1770, 1771, 1832, 1831, 2319, 2320, 2381, 2380
1562, 1771, 1772, 1833, 1832, 2320, 2321, 2382, 2381
1563, 1772, 1773, 1834, 1833, 2321, 2322, 2383, 2382
1564, 1773, 1774, 1835, 1834, 2322, 2323, 2384, 2383
1565, 1774, 1775, 1836, 1835, 2323, 2324, 2385, 2384
1566, 1775, 1776, 1837, 1836, 2324, 2325, 2386, 2385
1567, 1776, 1777, 1838, 1837, 2325, 2326, 2387, 2386
1568, 1777, 1778, 1839, 1838, 2326, 2327, 2388, 2387
1569, 1778, 1779, 1840, 1839, 2327, 2328, 2389, 2388
1570, 1779, 1780, 1841, 1840, 2328, 2329, 2390, 2389
1571, 1780, 1781, 1842, 1841, 2329, 2330, 2391, 2390
1572, 1781, 1782, 1843, 1842, 2330, 2331, 2392, 2391
1573, 1782, 1783, 1844, 1843, 2331, 2332, 2393, 2392
1574, 1783, 1784, 1845, 1844, 2332, 2333, 2394, 2393
1575, 1784, 1785, 1846, 1845, 2333, 2334, 2395, 2394
1576, 1785, 1786, 1847, 1846, 2334, 2335, 2396, 2395
1577, 1786, 1787, 1848, 1847, 2335, 2336, 2397, 2396
1578, 1787, 1788, 1849, 1848, 2336, 2337, 2398, 2397
1579, 1788, 1789, 1850, 1849, 2337, 2338, 2399, 2398
1580, 1789, 1790, 1851, 1850, 2338, 2339, 2400, 2399
1581, 1790, 1791, 1852, 1851, 2339, 2340, 2401, 2400
1582, 1791, 1792, 1853, 1852, 2340, 2341, 2402, 2401
1583, 1792, 1793, 1854, 1853, 2341, 2342, 2403, 2402
1584, 1793, 1794, 1855, 1854, 2342, 2343, 2404, 2403
1585, 1794, 1795, 1856, 1855, 2343, 2344, 2405, 2404
1586, 1795, 1796, 1857, 1856, 2344, 2345, 2406, 2405
1587, 1796, 1797, 1858, 1857, 2345, 2346, 2407, 2406
1588, 1797, 1798, 1859, 1858, 2346, 2347, 2408, 2407
1589, 1798, 1799, 1860, 1859, 2347, 2348, 2409, 2408
1590, 1799, 1800, 1861, 1860, 2348, 2349, 2410, 2409
1591, 1800, 1801, 1862, 1861, 2349, 2350, 2411, 2410
1592, 1801, 1802, 1863, 1862, 2350, 2351, 2412, 2411
1593, 1802, 1803, 1864, 1863, 2351, 2352, 2413, 2412
1594, 1803, 1804, 1865, 1864, 2352, 2353, 2414, 2413
1595, 1804, 1805, 1866, 1865, 2353, 2354, 2415, 2414
1596, 1805, 1806, 1867, 1866, 2354, 2355, 2416, 2415
1597, 1806, 1807, 1868, 1867, 2355, 2356, 2417, 2416
1598, 1807, 1808, 1869, 1868, 2356, 2357, 2418, 2417
1599, 1808, 1809, 1870, 1869, 2357, 2358, 2419, 2418
1600, 1809, 1810, 1871, 1870, 2358, 2359, 2420, 2419
1601, 1810, 1811, 1872, 1871, 2359, 2360, 2421, 2420
1602, 1811, 1812, 1873, 1872, 2360, 2361, 2422, 2421
1603, 1812, 1813, 1874, 1873, 2361, 2362, 2423, 2422
1604, 1813, 1814, 1875, 1874, 2362, 2363, 2424, 2423
1605, 1814, 1815, 1876, 1875, 2363, 2364, 2425, 2424
1606, 1815, 1816, 1877, 1876, 2364, 2365, 2426, 2425
1607, 1816, 1817, 1878, 1877, 2365, 2366, 2427, 2426
1608, 1817, 1818, 1879, 1878, 2366, 2367, 2428, 2427
1609, 1818, 1819, 1880, 1879, 2367, 2368, 2429, 2428
1610, 1819, 1820, 1881, 1880, 2368, 2369, 2430, 2429
1611, 1820, 1821, 1882, 1881, 2369, 2370, 2431, 2430
1612, 1821, 1822, 1883, 1882, 2370, 2371, 2432, 2431
1613, 1822, 1823, 1884, 1883, 2371, 2372, 2433, 2432
1614, 1823, 1824, 1885, 1884, 2372, 2373, 2434, 2433
1615, 1824, 1825, 1886, 1885, 2373, 2374, 2435, 2434
1616, 1825, 1826, 1887, 1886, 2374, 2375, 2436, 2435
1617, 1826, 1827, 1888, 1887, 2375, 2376, 2437, 2436
1618, 1827, 1828, 1889, 1888, 2376, 2377, 2438, 2437
1619, 1828, 1829, 1890, 1889, 2377, 2378, 2439, 2438
1620, 1829, 1830, 1891, 1890, 2378, 2379, 2440, 2439
1621, 1831, 1832, 1893, 1892, 2380, 2381, 2442, 2441
1622, 1832, 1833, 1894, 1893, 2381, 2382, 2443, 2442
1623, 1833, 1834, 1895, 1894, 2382, 2383, 2444, 2443
1624, 1834, 1835, 1896, 1895, 2383, 2384, 2445, 2444
1625, 1835, 1836, 1897, 1896, 2384, 2385, 2446, 2445
1626, 1836, 1837, 1898, 1897, 2385, 2386, 2447, 2446
1627, 1837, 1838, 1899, 1898, 2386, 2387, 2448, 2447
1628, 1838, 1839, 1900, 1899, 2387, 2388, 2449, 2448
1629, 1839, 1840, 1901, 1900, 2388, 2389, 2450, 2449
1630, 1840, 1841, 1902, 1901, 2389, 2390, 2451, 2450
1631, 1841, 1842, 1903, 1902, 2390, 2391, 2452, 2451
1632, 1842, 1843, 1904, 1903, 2391, 2392, 2453, 2452
1633, 1843, 1844, 1905, 1904, 2392, 2393, 2454, 2453
1634, 1844, 1845, 1906, 1905, 2393, 2394, 2455, 2454
1635, 1845, 1846, 1907, 1906, 2394, 2395, 2456, 2455
1636, 1846, 1847, 1908, 1907, 2395, 2396, 2457, 2456
1637, 1847, 1848, 1909, 1908, 2396, 2397, 2458, 2457
1638, 1848, 1849, 1910, 1909, 2397, 2398, 2459, 2458
1639, 1849, 1850, 1911, 1910, 2398, 2399, 2460, 2459
1640, 1850, 1851, 1912, 1911, 2399, 2400, 2461, 2460
1641, 1851, 1852, 1913, 1912, 2400, 2401, 2462, 2461
1642, 1852, 1853, 1914, 1913, 2401, 2402, 2463, 2462
1643, 1853, 1854, 1915, 1914, 2402, 2403, 2464, 2463
1644, 1854, 1855, 1916, 1915, 2403, 2404, 2465, 2464
1645, 1855, 1856, 1917, 1916, 2404, 2405, 2466, 2465
1646, 1856, 1857, 1918, 1917, 2405, 2406, 2467, 2466
1647, 1857, 1858, 1919, 1918, 2406, 2407, 2468, 2467
1648, 1858, 1859, 1920, 1919, 2407, 2408, 2469, 2468
1649, 1859, 1860, 1921, 1920, 2408, 2409, 2470, 2469
1650, 1860, 1861, 1922, 1921, 2409, 2410, 2471, 2470
1651, 1861, 1862, 1923, 1922, 2410, 2411, 2472, 2471
1652, 1862, 1863, 1924, 1923, 2411, 2412, 2473, 2472
1653, 1863, 1864, 1925, 1924, 2412, 2413, 2474, 2473
1654, 1864, 1865, 1926, 1925, 2413, 2414, 2475, 2474
1655, 1865, 1866, 1927, 1926, 2414, 2415, 2476, 2475
1656, 1866, 1867, 1928, 1927, 2415, 2416, 2477, 2476
1657, 1867, 1868, 1929, 1928, 2416, 2417, 2478, 2477
1658, 1868, 1869, 1930, 1929, 2417, 2418, 2479, 2478
1659, 1869, 1870, 1931, 1930, 2418, 2419, 2480, 2479
1660, 1870, 1871, 1932, 1931, 2419, 2420, 2481, 2480
1661, 1871, 1872, 1933, 1932, 2420, 2421, 2482, 2481
1662, 1872, 1873, 1934, 1933, 2421, 2422, 2483, 2482
1663, 1873, 1874, 1935, 1934, 2422, 2423, 2484, 2483
1664, 1874, 1875, 1936, 1935, 2423, 2424, 2485, 2484
1665, 1875, 1876, 1937, 1936, 2424, 2425, 2486, 2485
1666, 1876, 1877, 1938, 1937, 2425, 2426, 2487, 2486
1667, 1877, 1878, 1939, 1938, 2426, 2427, 2488, 2487
1668, 1878, 1879, 1940, 1939, 2427, 2428, 2489, 2488
1669, 1879, 1880, 1941, 1940, 2428, 2429, 2490, 2489
1670, 1880, 1881, 1942, 1941, 2429, 2430, 2491, 2490
1671, 1881, 1882, 1943, 1942, 2430, 2431, 2492, 2491
1672, 1882, 1883, 1944, 1943, 2431, 2432, 2493, 2492
1673, 1883, 1884, 1945, 1944, 2432, 2433, 2494, 2493
1674, 1884, 1885, 1946, 1945, 2433, 2434, 2495, 2494
1675, 1885, 1886, 1947, 1946, 2434, 2435, 2496, 2495
1676, 1886, 1887, 1948, 1947, 2435, 2436, 2497, 2496
1677, 1887, 1888, 1949, 1948, 2436, 2437, 2498, 2497
1678, 1888, 1889, 1950, 1949, 2437, 2438, 2499, 2498
1679, 1889, 1890, 1951, 1950, 2438, 2439, 2500, 2499
1680, 1890, 1891, 1952, 1951, 2439, 2440, 2501, 2500
1681, 1892, 1893, 1954, 1953, 2441, 2442, 2503, 2502
1682, 1893, 1894, 1955, 1954, 2442, 2443, 2504, 2503
1683, 1894, 1895, 1956, 1955, 2443, 2444, 2505, 2504
1684, 1895, 1896, 1957, 1956, 2444, 2445, 2506, 2505
1685, 1896, 1897, 1958, 1957, 2445, 2446, 2507, 2506
1686, 1897, 1898, 1959, 1958, 2446, 2447, 2508, 2507
1687, 1898, 1899, 1960, 1959, 2447, 2448, 2509, 2508
1688, 1899, 1900, 1961, 1960, 2448, 2449, 2510, 2509
1689, 1900, 1901, 1962, 1961, 2449, 2450, 2511, 2510
1690, 1901, 1902, 1963, 1962, 2450, 2451, 2512, 2511
1691, 1902, 1903, 1964, 1963, 2451, 2452, 2513, 2512
1692, 1903, 1904, 1965, 1964, 2452, 2453, 2514, 2513
1693, 1904, 1905, 1966, 1965, 2453, 2454, 2515, 2514
1694, 1905, 1906, 1967, 1966, 2454, 2455, 2516, 2515
1695, 1906, 1907, 1968, 1967, 2455, 2456, 2517, 2516
1696, 1907, 1908, 1969, 1968, 2456, 2457, 2518, 2517
1697, 1908, 1909, 1970, 1969, 2457, 2458, 2519, 2518
1698, 1909, 1910, 1971, 1970, 2458, 2459, 2520, 2519
1699, 1910, 1911, 1972, 1971, 2459, 2460, 2521, 2520
1700, 1911, 1912, 1973, 1972, 2460, 2461, 2522, 2521
1701, 1912, 1913, 1974, 1973, 2461, 2462, 2523, 2522
1702, 1913, 1914, 1975, 1974, 2462, 2463, 2524, 2523
1703, 1914, 1915, 1976, 1975, 2463, 2464, 2525, 2524
1704, 1915, 1916, 1977, 1976, 2464, 2465, 2526, 2525
1705, 1916, 1917, 1978, 1977, 2465, 2466, 2527, 2526
1706, 1917, 1918, 1979, 1978, 2466, 2467, 2528, 2527
1707, 1918, 1919, 1980, 1979, 2467, 2468, 2529, 2528
1708, 1919, 1920, 1981, 1980, 2468, 2469, 2530, 2529
1709, 1920, 1921, 1982, 1981, 2469, 2470, 2531, 2530
1710, 1921, 1922, 1983, 1982, 2470, 2471, 2532, 2531
1711, 1922, 1923, 1984, 1983, 2471, 2472, 2533, 2532
1712, 1923, 1924, 1985, 1984, 2472, 2473, 2534, 2533
1713, 1924, 1925, 1986, 1985, 2473, 2474, 2535, 2534
1714, 1925, 1926, 1987, 1986, 2474, 2475, 2536, 2535
1715, 1926, 1927, 1988, 1987, 2475, 2476, 2537, 2536
1716, 1927, 1928, 1989, 1988, 2476, 2477, 2538, 2537
1717, 1928, 1929, 1990, 1989, 2477, 2478, 2539, 2538
1718, 1929, 1930, 1991, 1990, 2478, 2479, 2540, 2539
1719, 1930, 1931, 1992, 1991, 2479, 2480, 2541, 2540
1720, 1931, 1932, 1993, 1992, 2480, 2481, 2542, 2541
1721, 1932, 1933, 1994, 1993, 2481, 2482, 2543, 2542
1722, 1933, 1934, 1995, 1994, 2482, 2483, 2544, 2543
1723, 1934, 1935, 1996, 1995, 2483, 2484, 2545, 2544
1724, 1935, 1936, 1997, 1996, 2484, 2485, 2546, 2545
1725, 1936, 1937, 1998, 1997, 2485, 2486, 2547, 2546
1726, 1937, 1938, 1999, 1998, 2486, 2487, 2548, 2547
1727, 1938, 1939, 2000, 1999, 2487, 2488, 2549, 2548
1728, 1939, 1940, 2001, 2000, 2488, 2489, 2550, 2549
1729, 1940, 1941, 2002, 2001, 2489, 2490, 2551, 2550
1730, 1941, 1942, 2003, 2002, 2490, 2491, 2552, 2551
1731, 1942, 1943, 2004, 2003, 2491, 2492, 2553, 2552
1732, 1943, 1944, 2005, 2004, 2492, 2493, 2554, 2553
1733, 1944, 1945, 2006, 2005, 2493, 2494, 2555, 2554
1734, 1945, 1946, 2007, 2006, 2494, 2495, 2556, 2555
1735, 1946, 1947, 2008, 2007, 2495, 2496, 2557, 2556
1736, 1947, 1948, 2009, 2008, 2496, 2497, 2558, 2557
1737, 1948, 1949, 2010, 2009, 2497, 2498, 2559, 2558
1738, 1949, 1950, 2011, 2010, 2498, 2499, 2560, 2559
1739, 1950, 1951, 2012, 2011, 2499, 2500, 2561, 2560
1740, 1951, 1952, 2013, 2012, 2500, 2501, 2562, 2561
1741, 1953, 1954, 2015, 2014, 2502, 2503, 2564, 2563
1742, 1954, 1955, 2016, 2015, 2503, 2504, 2565, 2564
1743, 1955, 1956, 2017, 2016, 2504, 2505, 2566, 2565
1744, 1956, 1957, 2018, 2017, 2505, 2506, 2567, 2566
1745, 1957, 1958, 2019, 2018, 2506, 2507, 2568, 2567
1746, 1958, 1959, 2020, 2019, 2507, 2508, 2569, 2568
1747, 1959, 1960, 2021, 2020, 2508, 2509, 2570, 2569
1748, 1960, 1961, 2022, 2021, 2509, 2510, 2571, 2570
1749, 1961, 1962, 2023, 2022, 2510, 2511, 2572, 2571
1750, 1962, 1963, 2024, 2023, 2511, 2512, 2573, 2572
1751, 1963, 1964, 2025, 2024, 2512, 2513, 2574, 2573
1752, 1964, 1965, 2026, 2025, 2513, 2514, 2575, 2574
1753, 1965, 1966, 2027, 2026, 2514, 2515, 2576, 2575
1754, 1966, 1967, 2028, 2027, 2515, 2516, 2577, 2576
1755, 1967, 1968, 2029, 2028, 2516, 2517, 2578, 2577
1756, 1968, 1969, 2030, 2029, 2517, 2518, 2579, 2578
1757, 1969, 1970, 2031, 2030, 2518, 2519, 2580, 2579
1758, 1970, 1971, 2032, 2031, 2519, 2520, 2581, 2580
1759, 1971, 1972, 2033, 2032, 2520, 2521, 2582, 2581
1760, 1972, 1973, 2034, 2033, 2521, 2522, 2583, 2582
1761, 1973, 1974, 2035, 2034, 2522, 2523, 2584, 2583
1762, 1974, 1975, 2036, 2035, 2523, 2524, 2585, 2584
1763, 1975, 1976, 2037, 2036, 2524, 2525, 2586, 2585
1764, 1976, 1977, 2038, 2037, 2525, 2526, 2587, 2586
1765, 1977, 1978, 2039, 2038, 2526, 2527, 2588, 2587
1766, 1978, 1979, 2040, 2039, 2527, 2528, 2589, 2588
1767, 1979, 1980, 2041, 2040, 2528, 2529, 2590, 2589
1768, 1980, 1981, 2042, 2041, 2529, 2530, 2591, 2590
1769, 1981, 1982, 2043, 2042, 2530, 2531, 2592, 2591
1770, 1982, 1983, 2044, 2043, 2531, 2532, 2593, 2592
1771, 1983, 1984, 2045, 2044, 2532, 2533, 2594, 2593
1772, 1984, 1985, 2046, 2045, 2533, 2534, 2595, 2594
1773, 1985, 1986, 2047, 2046, 2534, 2535, 2596, 2595
1774, 1986, 1987, 2048, 2047, 2535, 2536, 2597, 2596
1775, 1987, 1988, 2049, 2048, 2536, 2537, 2598, 2597
1776, 1988, 1989, 2050, 2049, 2537, 2538, 2599, 2598
1777, 1989, 1990, 2051, 2050, 2538, 2539, 2600, 2599
1778, 1990, 1991, 2052, 2051, 2539, 2540, 2601, 2600
1779, 1991, 1992, 2053, 2052, 2540, 2541, 2602, 2601
1780, 1992, 1993, 2054, 2053, 2541, 2542, 2603, 2602
1781, 1993, 1994, 2055, 2054, 2542, 2543, 2604, 2603
1782, 1994, 1995, 2056, 2055, 2543, 2544, 2605, 2604
1783, 1995, 1996, 2057, 2056, 2544, 2545, 2606, 2605
1784, 1996, 1997, 2058, 2057, 2545, 2546, 2607, 2606
1785, 1997, 1998, 2059, 2058, 2546, 2547, 2608, 2607
1786, 1998, 1999, 2060, 2059, 2547, 2548, 2609, 2608
1787, 1999, 2000, 2061, 2060, 2548, 2549, 2610, 2609
1788, 2000, 2001, 2062, 2061, 2549, 2550, 2611, 2610
1789, 2001, 2002, 2063, 2062, 2550, 2551, 2612, 2611
1790, 2002, 2003, 2064, 2063, 2551, 2552, 2613, 2612
1791, 2003, 2004, 2065, 2064, 2552, 2553, 2614, 2613
1792, 2004, 2005, 2066, 2065, 2553, 2554, 2615, 2614
1793, 2005, 2006, 2067, 2066, 2554, 2555, 2616, 2615
1794, 2006, 2007, 2068, 2067, 2555, 2556, 2617, 2616
1795, 2007, 2008, 2069, 2068, 2556, 2557, 2618, 2617
1796, 2008, 2009, 2070, 2069, 2557, 2558, 2619, 2618
1797, 2009, 2010, 2071, 2070, 2558, 2559, 2620, 2619
1798, 2010, 2011, 2072, 2071, 2559, 2560, 2621, 2620
1799, 2011, 2012, 2073, 2072, 2560, 2561, 2622, 2621
1800, 2012, 2013, 2074, 2073, 2561, 2562, 2623, 2622
1801, 2014, 2015, 2076, 2075, 2563, 2564, 2625, 2624
1802, 2015, 2016, 2077, 2076, 2564, 2565, 2626, 2625
1803, 2016, 2017, 2078, 2077, 2565, 2566, 2627, 2626
1804, 2017, 2018, 2079, 2078, 2566, 2567, 2628, 2627
1805, 2018, 2019, 2080, 2079, 2567, 2568, 2629, 2628
1806, 2019, 2020, 2081, 2080, 2568, 2569, 2630, 2629
1807, 2020, 2021, 2082, 2081, 2569, 2570, 2631, 2630
1808, 2021, 2022, 2083, 2082, 2570, 2571, 2632, 2631
1809, 2022, 2023, 2084, 2083, 2571, 2572, 2633, 2632
1810, 2023, 2024, 2085, 2084, 2572, 2573, 2634, 2633
1811, 2024, 2025, 2086, 2085, 2573, 2574, 2635, 2634
1812, 2025, 2026, 2087, 2086, 2574, 2575, 2636, 2635
1813, 2026, 2027, 2088, 2087, 2575, 2576, 2637, 2636
1814, 2027, 2028, 2089, 2088, 2576, 2577, 2638, 2637
1815, 2028, 2029, 2090, 2089, 2577, 2578, 2639, 2638
1816, 2029, 2030, 2091, 2090, 2578, 2579, 2640, 2639
1817, 2030, 2031, 2092, 2091, 2579, 2580, 2641, 2640
1818, 2031, 2032, 2093, 2092, 2580, 2581, 2642, 2641
1819, 2032, 2033, 2094, 2093, 2581, 2582, 2643, 2642
1820, 2033, 2034, 2095, 2094, 2582, 2583, 2644, 2643
1821, 2034, 2035, 2096, 2095, 2583, 2584, 2645, 2644
1822, 2035, 2036, 2097, 2096, 2584, 2585, 2646, 2645
1823, 2036, 2037, 2098, 2097, 2585, 2586, 2647, 2646
1824, 2037, 2038, 2099, 2098, 2586, 2587, 2648, 2647
1825, 2038, 2039, 2100, 2099, 2587, 2588, 2649, 2648
1826, 2039, 2040, 2101, 2100, 2588, 2589, 2650, 2649
1827, 2040, 2041, 2102, 2101, 2589, 2590, 2651, 2650
1828, 2041, 2042, 2103, 2102, 2590, 2591, 2652, 2651
1829, 2042, 2043, 2104, 2103, 2591, 2592, 2653, 2652
1830, 2043, 2044, 2105, 2104, 2592, 2593, 2654, 2653
1831, 2044, 2045, 2106, 2105, 2593, 2594, 2655, 2654
1832, 2045, 2046, 2107, 2106, 2594, 2595, 2656, 2655
1833, 2046, 2047, 2108, 2107, 2595, 2596, 2657, 2656
1834, 2047, 2048, 2109, 2108, 2596, 2597, 2658, 2657
1835, 2048, 2049, 2110, 2109, 2597, 2598, 2659, 2658
1836, 2049, 2050, 2111, 2110, 2598, 2599, 2660, 2659
1837, 2050, 2051, 2112, 2111, 2599, 2600, 2661, 2660
1838, 2051, 2052, 2113, 2112, 2600, 2601, 2662, 2661
1839, 2052, 2053, 2114, 2113, 2601, 2602, 2663, 2662
1840, 2053, 2054, 2115, 2114, 2602, 2603, 2664, 2663
1841, 2054, 2055, 2116, 2115, 2603, 2604, 2665, 2664
1842, 2055, 2056, 2117, 2116, 2604, 2605, 2666, 2665
1843, 2056, 2057, 2118, 2117, 2605, 2606, 2667, 2666
1844, 2057, 2058, 2119, 2118, 2606, 2607, 2668, 2667
1845, 2058, 2059, 2120, 2119, 2607, 2608, 2669, 2668
1846, 2059, 2060, 2121, 2120, 2608, 2609, 2670, 2669
1847, 2060, 2061, 2122, 2121, 2609, 2610, 2671, 2670
1848, 2061, 2062, 2123, 2122, 2610, 2611, 2672, 2671
1849, 2062, 2063, 2124, 2123, 2611, 2612, 2673, 2672
1850, 2063, 2064, 2125, 2124, 2612, 2613, 2674, 2673
1851, 2064, 2065, 2126, 2125, 2613, 2614, 2675, 2674
1852, 2065, 2066, 2127, 2126, 2614, 2615, 2676, 2675
1853, 2066, 2067, 2128, 2127, 2615, 2616, 2677, 2676
1854, 2067, 2068, 2129, 2128, 2616, 2617, 2678, 2677
1855, 2068, 2069, 2130, 2129, 2617, 2618, 2679, 2678
1856, 2069, 2070, 2131, 2130, 2618, 2619, 2680, 2679
1857, 2070, 2071, 2132, 2131, 2619, 2620, 2681, 2680
1858, 2071, 2072, 2133, 2132, 2620, 2621, 2682, 2681
1859, 2072, 2073, 2134, 2133, 2621, 2622, 2683, 2682
1860, 2073, 2074, 2135, 2134, 2622, 2623, 2684, 2683
1861, 2075, 2076, 2137, 2136, 2624, 2625, 2686, 2685
1862, 2076, 2077, 2138, 2137, 2625, 2626, 2687, 2686
1863, 2077, 2078, 2139, 2138, 2626, 2627, 2688, 2687
1864, 2078, 2079, 2140, 2139, 2627, 2628, 2689, 2688
1865, 2079, 2080, 2141, 2140, 2628, 2629, 2690, 2689
1866, 2080, 2081, 2142, 2141, 2629, 2630, 2691, 2690
1867, 2081, 2082, 2143, 2142, 2630, 2631, 2692, 2691
1868, 2082, 2083, 2144, 2143, 2631, 2632, 2693, 2692
1869, 2083, 2084, 2145, 2144, 2632, 2633, 2694, 2693
1870, 2084, 2085, 2146, 2145, 2633, 2634, 2695, 2694
1871, 2085, 2086, 2147, 2146, 2634, 2635, 2696, 2695
1872, 2086, 2087, 2148, 2147, 2635, 2636, 2697, 2696
1873, 2087, 2088, 2149, 2148, 2636, 2637, 2698, 2697
1874, 2088, 2089, 2150, 2149, 2637, 2638, 2699, 2698
1875, 2089, 2090, 2151, 2150, 2638, 2639, 2700, 2699
1876, 2090, 2091, 2152, 2151, 2639, 2640, 2701, 2700
1877, 2091, 2092, 2153, 2152, 2640, 2641, 2702, 2701
1878, 2092, 2093, 2154, 2153, 2641, 2642, 2703, 2702
1879, 2093, 2094, 2155, 2154, 2642, 2643, 2704, 2703
1880, 2094, 2095, 2156, 2155, 2643, 2644, 2705, 2704
1881, 2095, 2096, 2157, 2156, 2644, 2645, 2706, 2705
1882, 2096, 2097, 2158, 2157, 2645, 2646, 2707, 2706
1883, 2097, 2098, 2159, 2158, 2646, 2647, 2708, 2707
1884, 2098, 2099, 2160, 2159, 2647, 2648, 2709, 2708
1885, 2099, 2100, 2161, 2160, 2648, 2649, 2710, 2709
1886, 2100, 2101, 2162, 2161, 2649, 2650, 2711, 2710
1887, 2101, 2102, 2163, 2162, 2650, 2651, 2712, 2711
1888, 2102, 2103, 2164, 2163, 2651, 2652, 2713, 2712
1889, 2103, 2104, 2165, 2164, 2652, 2653, 2714, 2713
1890, 2104, 2105, 2166, 2165, 2653, 2654, 2715, 2714
1891, 2105, 2106, 2167, 2166, 2654, 2655, 2716, 2715
1892, 2106, 2107, 2168, 2167, 2655, 2656, 2717, 2716
1893, 2107, 2108, 2169, 2168, 2656, 2657, 2718, 2717
1894, 2108, 2109, 2170, 2169, 2657, 2658, 2719, 2718
1895, 2109, 2110, 2171, 2170, 2658, 2659, 2720, 2719
1896, 2110, 2111, 2172, 2171, 2659, 2660, 2721, 2720
1897, 2111, 2112, 2173, 2172, 2660, 2661, 2722, 2721
1898, 2112, 2113, 2174, 2173, 2661, 2662, 2723, 2722
1899, 2113, 2114, 2175, 2174, 2662, 2663, 2724, 2723
1900, 2114, 2115, 2176, 2175, 2663, 2664, 2725, 2724
1901, 2115, 2116, 2177, 2176, 2664, 2665, 2726, 2725
1902, 2116, 2117, 2178, 2177, 2665, 2666, 2727, 2726
1903, 2117, 2118, 2179, 2178, 2666, 2667, 2728, 2727
1904, 2118, 2119, 2180, 2179, 2667, 2668, 2729, 2728
1905, 2119, 2120, 2181, 2180, 2668, 2669, 2730, 2729
1906, 2120, 2121, 2182, 2181, 2669, 2670, 2731, 2730
1907, 2121, 2122, 2183, 2182, 2670, 2671, 2732, 2731
1908, 2122, 2123, 2184, 2183, 2671, 2672, 2733, 2732
1909, 2123, 2124, 2185, 2184, 2672, 2673, 2734, 2733
1910, 2124, 2125, 2186, 2185, 2673, 2674, 2735, 2734
1911, 2125, 2126, 2187, 2186, 2674, 2675, 2736, 2735
1912, 2126, 2127, 2188, 2187, 2675, 2676, 2737, 2736
1913, 2127, 2128, 2189, 2188, 2676, 2677, 2738, 2737
1914, 2128, 2129, 2190, 2189, 2677, 2678, 2739, 2738
1915, 2129, 2130, 2191, 2190, 2678, 2679, 2740, 2739
1916, 2130, 2131, 2192, 2191, 2679, 2680, 2741, 2740
1917, 2131, 2132, 2193, 2192, 2680, 2681, 2742, 2741
1918, 2132, 2133, 2194, 2193, 2681, 2682, 2743, 2742
1919, 2133, 2134, 2195, 2194, 2682, 2683, 2744, 2743
1920, 2134, 2135, 2196, 2195, 2683, 2684, 2745, 2744
*Elset, elset=BEAM_EALL, generate
1, 1920, 1
*Solid Section, elset=BEAM_EALL, material=BEAM_MAT
,
*End Part
*Part, name=SPHERE
*Node
1, 4.000000000000e-01, 0.000000000000e+00, 6.900000000000e-02
2, 4.000000000000e-01, 0.000000000000e+00, 1.140000000000e-01
3, 4.058736786499e-01, 0.000000000000e+00, 1.136150187618e-01
4, 4.058234285148e-01, 7.666689084960e-04, 1.136150187618e-01
5, 4.056735379033e-01, 1.520219899407e-03, 1.136150187618e-01
6, 4.054265714852e-01, 2.247759506354e-03, 1.136150187618e-01
7, 4.050867549245e-01, 2.936839324951e-03, 1.136150187618e-01
8, 4.046599025767e-01, 3.575669008453e-03, 1.136150187618e-01
9, 4.041533180039e-01, 4.153318003857e-03, 1.136150187618e-01
10, 4.035756690085e-01, 4.659902576697e-03, 1.136150187618e-01
11, 4.029368393250e-01, 5.086754924482e-03, 1.136150187618e-01
12, 4.022477595064e-01, 5.426571485193e-03, 1.136150187618e-01
13, 4.015202198994e-01, 5.673537903263e-03, 1.136150187618e-01
14, 4.007666689085e-01, 5.823428514807e-03, 1.136150187618e-01
15, 4.000000000000e-01, 5.873678649902e-03, 1.136150187618e-01
16, 3.992333310915e-01, 5.823428514807e-03, 1.136150187618e-01
17, 3.984797801006e-01, 5.673537903263e-03, 1.136150187618e-01
18, 3.977522404936e-01, 5.426571485193e-03, 1.136150187618e-01
19, 3.970631606750e-01, 5.086754924482e-03, 1.136150187618e-01
20, 3.964243309915e-01, 4.659902576697e-03, 1.136150187618e-01
21, 3.958466819961e-01, 4.153318003857e-03, 1.136150187618e-01
22, 3.953400974233e-01, 3.575669008453e-03, 1.136150187618e-01
23, 3.949132450755e-01, 2.936839324951e-03, 1.136150187618e-01
24, 3.945734285148e-01, 2.247759506354e-03, 1.136150187618e-01
25, 3.943264620967e-01, 1.520219899407e-03, 1.136150187618e-01
26, 3.941765714852e-01, 7.666689084960e-04, 1.136150187618e-01
27, 3.941263213501e-01, 7.193181757823e-19, 1.136150187618e-01
28, 3.941765714852e-01, -7.666689084960e-04, 1.136150187618e-01
29, 3.943264620967e-01, -1.520219899407e-03, 1.136150187618e-01
30, 3.945734285148e-01, -2.247759506354e-03, 1.136150187618e-01
31, 3.949132450755e-01, -2.936839324951e-03, 1.136150187618e-01
32, 3.953400974233e-01, -3.575669008453e-03, 1.136150187618e-01
33, 3.958466819961e-01, -4.153318003857e-03, 1.136150187618e-01
34, 3.964243309915e-01, -4.659902576697e-03, 1.136150187618e-01
35, 3.970631606750e-01, -5.086754924482e-03, 1.136150187618e-01
36, 3.977522404936e-01, -5.426571485193e-03, 1.136150187618e-01
37, 3.984797801006e-01, -5.673537903263e-03, 1.136150187618e-01
38, 3.992333310915e-01, -5.823428514807e-03, 1.136150187618e-01
39, 4.000000000000e-01, -5.873678649902e-03, 1.136150187618e-01
40, 4.007666689085e-01, -5.823428514807e-03, 1.136150187618e-01
41, 4.015202198994e-01, -5.673537903263e-03, 1.136150187618e-01
42, 4.022477595064e-01, -5.426571485193e-03, 1.136150187618e-01
43, 4.029368393250e-01, -5.086754924482e-03, 1.136150187618e-01
44, 4.035756690085e-01, -4.659902576697e-03, 1.136150187618e-01
45, 4.041533180039e-01, -4.153318003857e-03, 1.136150187618e-01
46, 4.046599025767e-01, -3.575669008453e-03, 1.136150187618e-01
47, 4.050867549245e-01, -2.936839324951e-03, 1.136150187618e-01
48, 4.054265714852e-01, -2.247759506354e-03, 1.136150187618e-01
49, 4.056735379033e-01, -1.520219899407e-03, 1.136150187618e-01
50, 4.058234285148e-01, -7.666689084960e-04, 1.136150187618e-01
51, 4.116468570296e-01, 0.000000000000e+00, 1.124666621830e-01
52, 4.115472165532e-01, 1.520219899407e-03, 1.124666621830e-01
53, 4.112500000000e-01, 3.014428414850e-03, 1.124666621830e-01
54, 4.107602928277e-01, 4.457059224358e-03, 1.124666621830e-01
55, 4.100864740619e-01, 5.823428514807e-03, 1.124666621830e-01
56, 4.092400729283e-01, 7.090157328808e-03, 1.124666621830e-01
57, 4.082355715851e-01, 8.235571585150e-03, 1.124666621830e-01
58, 4.070901573288e-01, 9.240072928338e-03, 1.124666621830e-01
59, 4.058234285148e-01, 1.008647406189e-02, 1.124666621830e-01
60, 4.044570592244e-01, 1.076029282775e-02, 1.124666621830e-01
61, 4.030144284149e-01, 1.125000000000e-02, 1.124666621830e-01
62, 4.015202198994e-01, 1.154721655317e-02, 1.124666621830e-01
63, 4.000000000000e-01, 1.164685702961e-02, 1.124666621830e-01
64, 3.984797801006e-01, 1.154721655317e-02, 1.124666621830e-01
65, 3.969855715851e-01, 1.125000000000e-02, 1.124666621830e-01
66, 3.955429407756e-01, 1.076029282775e-02, 1.124666621830e-01
67, 3.941765714852e-01, 1.008647406189e-02, 1.124666621830e-01
68, 3.929098426712e-01, 9.240072928338e-03, 1.124666621830e-01
69, 3.917644284149e-01, 8.235571585150e-03, 1.124666621830e-01
70, 3.907599270717e-01, 7.090157328808e-03, 1.124666621830e-01
71, 3.899135259381e-01, 5.823428514807e-03, 1.124666621830e-01
72, 3.892397071723e-01, 4.457059224358e-03, 1.124666621830e-01
73, 3.887500000000e-01, 3.014428414850e-03, 1.124666621830e-01
74, 3.884527834468e-01, 1.520219899407e-03, 1.124666621830e-01
75, 3.883531429704e-01, 1.426328618144e-18, 1.124666621830e-01
76, 3.884527834468e-01, -1.520219899407e-03, 1.124666621830e-01
77, 3.887500000000e-01, -3.014428414850e-03, 1.124666621830e-01
78, 3.892397071723e-01, -4.457059224358e-03, 1.124666621830e-01
79, 3.899135259381e-01, -5.823428514807e-03, 1.124666621830e-01
80, 3.907599270717e-01, -7.090157328808e-03, 1.124666621830e-01
81, 3.917644284149e-01, -8.235571585150e-03, 1.124666621830e-01
82, 3.929098426712e-01, -9.240072928338e-03, 1.124666621830e-01
83, 3.941765714852e-01, -1.008647406189e-02, 1.124666621830e-01
84, 3.955429407756e-01, -1.076029282775e-02, 1.124666621830e-01
85, 3.969855715851e-01, -1.125000000000e-02, 1.124666621830e-01
86, 3.984797801006e-01, -1.154721655317e-02, 1.124666621830e-01
87, 4.000000000000e-01, -1.164685702961e-02, 1.124666621830e-01
88, 4.015202198994e-01, -1.154721655317e-02, 1.124666621830e-01
89, 4.030144284149e-01, -1.125000000000e-02, 1.124666621830e-01
90, 4.044570592244e-01, -1.076029282775e-02, 1.124666621830e-01
91, 4.058234285148e-01, -1.008647406189e-02, 1.124666621830e-01
92, 4.070901573288e-01, -9.240072928338e-03, 1.124666621830e-01
93, 4.082355715851e-01, -8.235571585150e-03, 1.124666621830e-01
94, 4.092400729283e-01, -7.090157328808e-03, 1.124666621830e-01
95, 4.100864740619e-01, -5.823428514807e-03, 1.124666621830e-01
96, 4.107602928277e-01, -4.457059224358e-03, 1.124666621830e-01
97, 4.112500000000e-01, -3.014428414850e-03, 1.124666621830e-01
98, 4.115472165532e-01, -1.520219899407e-03, 1.124666621830e-01
99, 4.172207544564e-01, 0.000000000000e+00, 1.105745789630e-01
100, 4.170734285148e-01, 2.247759506354e-03, 1.105745789630e-01
101, 4.166339714776e-01, 4.457059224358e-03, 1.105745789630e-01
102, 4.159099025767e-01, 6.590097423303e-03, 1.105745789630e-01
103, 4.149136108316e-01, 8.610377228215e-03, 1.105745789630e-01
104, 4.136621430703e-01, 1.048333109150e-02, 1.105745789630e-01
105, 4.121769122533e-01, 1.217691225329e-02, 1.105745789630e-01
106, 4.104833310915e-01, 1.366214307034e-02, 1.105745789630e-01
107, 4.086103772282e-01, 1.491361083160e-02, 1.105745789630e-01
108, 4.065900974233e-01, 1.590990257670e-02, 1.105745789630e-01
109, 4.044570592244e-01, 1.663397147765e-02, 1.105745789630e-01
110, 4.022477595064e-01, 1.707342851481e-02, 1.105745789630e-01
111, 4.000000000000e-01, 1.722075445643e-02, 1.105745789630e-01
112, 3.977522404936e-01, 1.707342851481e-02, 1.105745789630e-01
113, 3.955429407756e-01, 1.663397147765e-02, 1.105745789630e-01
114, 3.934099025767e-01, 1.590990257670e-02, 1.105745789630e-01
115, 3.913896227718e-01, 1.491361083160e-02, 1.105745789630e-01
116, 3.895166689085e-01, 1.366214307034e-02, 1.105745789630e-01
117, 3.878230877467e-01, 1.217691225329e-02, 1.105745789630e-01
118, 3.863378569297e-01, 1.048333109150e-02, 1.105745789630e-01
119, 3.850863891684e-01, 8.610377228215e-03, 1.105745789630e-01
120, 3.840900974233e-01, 6.590097423303e-03, 1.105745789630e-01
121, 3.833660285224e-01, 4.457059224358e-03, 1.105745789630e-01
122, 3.829265714852e-01, 2.247759506354e-03, 1.105745789630e-01
123, 3.827792455436e-01, 2.108934182397e-18, 1.105745789630e-01
124, 3.829265714852e-01, -2.247759506354e-03, 1.105745789630e-01
125, 3.833660285224e-01, -4.457059224358e-03, 1.105745789630e-01
126, 3.840900974233e-01, -6.590097423303e-03, 1.105745789630e-01
127, 3.850863891684e-01, -8.610377228215e-03, 1.105745789630e-01
128, 3.863378569297e-01, -1.048333109150e-02, 1.105745789630e-01
129, 3.878230877467e-01, -1.217691225329e-02, 1.105745789630e-01
130, 3.895166689085e-01, -1.366214307034e-02, 1.105745789630e-01
131, 3.913896227718e-01, -1.491361083160e-02, 1.105745789630e-01
132, 3.934099025767e-01, -1.590990257670e-02, 1.105745789630e-01
133, 3.955429407756e-01, -1.663397147765e-02, 1.105745789630e-01
134, 3.977522404936e-01, -1.707342851481e-02, 1.105745789630e-01
135, 4.000000000000e-01, -1.722075445643e-02, 1.105745789630e-01
136, 4.022477595064e-01, -1.707342851481e-02, 1.105745789630e-01
137, 4.044570592244e-01, -1.663397147765e-02, 1.105745789630e-01
138, 4.065900974233e-01, -1.590990257670e-02, 1.105745789630e-01
139, 4.086103772282e-01, -1.491361083160e-02, 1.105745789630e-01
140, 4.104833310915e-01, -1.366214307034e-02, 1.105745789630e-01
141, 4.121769122533e-01, -1.217691225329e-02, 1.105745789630e-01
142, 4.136621430703e-01, -1.048333109150e-02, 1.105745789630e-01
143, 4.149136108316e-01, -8.610377228215e-03, 1.105745789630e-01
144, 4.159099025767e-01, -6.590097423303e-03, 1.105745789630e-01
145, 4.166339714776e-01, -4.457059224358e-03, 1.105745789630e-01
146, 4.170734285148e-01, -2.247759506354e-03, 1.105745789630e-01
147, 4.225000000000e-01, 0.000000000000e+00, 1.079711431703e-01
148, 4.223075093809e-01, 2.936839324951e-03, 1.079711431703e-01
149, 4.217333310915e-01, 5.823428514807e-03, 1.079711431703e-01
150, 4.207872894815e-01, 8.610377228215e-03, 1.079711431703e-01
151, 4.194855715851e-01, 1.125000000000e-02, 1.079711431703e-01
152, 4.178504501566e-01, 1.369713215270e-02, 1.079711431703e-01
153, 4.159099025767e-01, 1.590990257670e-02, 1.079711431703e-01
154, 4.136971321527e-01, 1.785045015655e-02, 1.079711431703e-01
155, 4.112500000000e-01, 1.948557158515e-02, 1.079711431703e-01
156, 4.086103772282e-01, 2.078728948150e-02, 1.079711431703e-01
157, 4.058234285148e-01, 2.173333109150e-02, 1.079711431703e-01
158, 4.029368393250e-01, 2.230750938091e-02, 1.079711431703e-01
159, 4.000000000000e-01, 2.250000000000e-02, 1.079711431703e-01
160, 3.970631606750e-01, 2.230750938091e-02, 1.079711431703e-01
161, 3.941765714852e-01, 2.173333109150e-02, 1.079711431703e-01
162, 3.913896227718e-01, 2.078728948150e-02, 1.079711431703e-01
163, 3.887500000000e-01, 1.948557158515e-02, 1.079711431703e-01
164, 3.863028678473e-01, 1.785045015655e-02, 1.079711431703e-01
165, 3.840900974233e-01, 1.590990257670e-02, 1.079711431703e-01
166, 3.821495498434e-01, 1.369713215270e-02, 1.079711431703e-01
167, 3.805144284149e-01, 1.125000000000e-02, 1.079711431703e-01
168, 3.792127105185e-01, 8.610377228215e-03, 1.079711431703e-01
169, 3.782666689085e-01, 5.823428514807e-03, 1.079711431703e-01
170, 3.776924906191e-01, 2.936839324951e-03, 1.079711431703e-01
171, 3.775000000000e-01, 2.755455298082e-18, 1.079711431703e-01
172, 3.776924906191e-01, -2.936839324951e-03, 1.079711431703e-01
173, 3.782666689085e-01, -5.823428514807e-03, 1.079711431703e-01
174, 3.792127105185e-01, -8.610377228215e-03, 1.079711431703e-01
175, 3.805144284149e-01, -1.125000000000e-02, 1.079711431703e-01
176, 3.821495498434e-01, -1.369713215270e-02, 1.079711431703e-01
177, 3.840900974233e-01, -1.590990257670e-02, 1.079711431703e-01
178, 3.863028678473e-01, -1.785045015655e-02, 1.079711431703e-01
179, 3.887500000000e-01, -1.948557158515e-02, 1.079711431703e-01
180, 3.913896227718e-01, -2.078728948150e-02, 1.079711431703e-01
181, 3.941765714852e-01, -2.173333109150e-02, 1.079711431703e-01
182, 3.970631606750e-01, -2.230750938091e-02, 1.079711431703e-01
183, 4.000000000000e-01, -2.250000000000e-02, 1.079711431703e-01
184, 4.029368393250e-01, -2.230750938091e-02, 1.079711431703e-01
185, 4.058234285148e-01, -2.173333109150e-02, 1.079711431703e-01
186, 4.086103772282e-01, -2.078728948150e-02, 1.079711431703e-01
187, 4.112500000000e-01, -1.948557158515e-02, 1.079711431703e-01
188, 4.136971321527e-01, -1.785045015655e-02, 1.079711431703e-01
189, 4.159099025767e-01, -1.590990257670e-02, 1.079711431703e-01
190, 4.178504501566e-01, -1.369713215270e-02, 1.079711431703e-01
191, 4.194855715851e-01, -1.125000000000e-02, 1.079711431703e-01
192, 4.207872894815e-01, -8.610377228215e-03, 1.079711431703e-01
193, 4.217333310915e-01, -5.823428514807e-03, 1.079711431703e-01
194, 4.223075093809e-01, -2.936839324951e-03, 1.079711431703e-01
195, 4.273942643054e-01, 0.000000000000e+00, 1.047009003131e-01
196, 4.271599025767e-01, 3.575669008453e-03, 1.047009003131e-01
197, 4.264608273848e-01, 7.090157328808e-03, 1.047009003131e-01
198, 4.253090001000e-01, 1.048333109150e-02, 1.047009003131e-01
199, 4.237241288065e-01, 1.369713215270e-02, 1.047009003131e-01
200, 4.217333310915e-01, 1.667657148519e-02, 1.047009003131e-01
201, 4.193706700560e-01, 1.937067005596e-02, 1.047009003131e-01
202, 4.166765714852e-01, 2.173333109150e-02, 1.047009003131e-01
203, 4.136971321527e-01, 2.372412880646e-02, 1.047009003131e-01
204, 4.104833310915e-01, 2.530900009996e-02, 1.047009003131e-01
205, 4.070901573288e-01, 2.646082738477e-02, 1.047009003131e-01
206, 4.035756690085e-01, 2.715990257670e-02, 1.047009003131e-01
207, 4.000000000000e-01, 2.739426430539e-02, 1.047009003131e-01
208, 3.964243309915e-01, 2.715990257670e-02, 1.047009003131e-01
209, 3.929098426712e-01, 2.646082738477e-02, 1.047009003131e-01
210, 3.895166689085e-01, 2.530900009996e-02, 1.047009003131e-01
211, 3.863028678473e-01, 2.372412880646e-02, 1.047009003131e-01
212, 3.833234285148e-01, 2.173333109150e-02, 1.047009003131e-01
213, 3.806293299440e-01, 1.937067005596e-02, 1.047009003131e-01
214, 3.782666689085e-01, 1.667657148519e-02, 1.047009003131e-01
215, 3.762758711935e-01, 1.369713215270e-02, 1.047009003131e-01
216, 3.746909999000e-01, 1.048333109150e-02, 1.047009003131e-01
217, 3.735391726152e-01, 7.090157328808e-03, 1.047009003131e-01
218, 3.728400974233e-01, 3.575669008453e-03, 1.047009003131e-01
219, 3.726057356946e-01, 3.354829809660e-18, 1.047009003131e-01
220, 3.728400974233e-01, -3.575669008453e-03, 1.047009003131e-01
221, 3.735391726152e-01, -7.090157328808e-03, 1.047009003131e-01
222, 3.746909999000e-01, -1.048333109150e-02, 1.047009003131e-01
223, 3.762758711935e-01, -1.369713215270e-02, 1.047009003131e-01
224, 3.782666689085e-01, -1.667657148519e-02, 1.047009003131e-01
225, 3.806293299440e-01, -1.937067005596e-02, 1.047009003131e-01
226, 3.833234285148e-01, -2.173333109150e-02, 1.047009003131e-01
227, 3.863028678473e-01, -2.372412880646e-02, 1.047009003131e-01
228, 3.895166689085e-01, -2.530900009996e-02, 1.047009003131e-01
229, 3.929098426712e-01, -2.646082738477e-02, 1.047009003131e-01
230, 3.964243309915e-01, -2.715990257670e-02, 1.047009003131e-01
231, 4.000000000000e-01, -2.739426430539e-02, 1.047009003131e-01
232, 4.035756690085e-01, -2.715990257670e-02, 1.047009003131e-01
233, 4.070901573288e-01, -2.646082738477e-02, 1.047009003131e-01
234, 4.104833310915e-01, -2.530900009996e-02, 1.047009003131e-01
235, 4.136971321527e-01, -2.372412880646e-02, 1.047009003131e-01
236, 4.166765714852e-01, -2.173333109150e-02, 1.047009003131e-01
237, 4.193706700560e-01, -1.937067005596e-02, 1.047009003131e-01
238, 4.217333310915e-01, -1.667657148519e-02, 1.047009003131e-01
239, 4.237241288065e-01, -1.369713215270e-02, 1.047009003131e-01
240, 4.253090001000e-01, -1.048333109150e-02, 1.047009003131e-01
241, 4.264608273848e-01, -7.090157328808e-03, 1.047009003131e-01
242, 4.271599025767e-01, -3.575669008453e-03, 1.047009003131e-01
243, 4.318198051534e-01, 0.000000000000e+00, 1.008198051534e-01
244, 4.315475823092e-01, 4.153318003857e-03, 1.008198051534e-01
245, 4.307355715851e-01, 8.235571585150e-03, 1.008198051534e-01
246, 4.293976667097e-01, 1.217691225329e-02, 1.008198051534e-01
247, 4.275567596063e-01, 1.590990257670e-02, 1.008198051534e-01
248, 4.252443487059e-01, 1.937067005596e-02, 1.008198051534e-01
249, 4.225000000000e-01, 2.250000000000e-02, 1.008198051534e-01
250, 4.193706700560e-01, 2.524434870586e-02, 1.008198051534e-01
251, 4.159099025767e-01, 2.755675960631e-02, 1.008198051534e-01
252, 4.121769122533e-01, 2.939766670972e-02, 1.008198051534e-01
253, 4.082355715851e-01, 3.073557158515e-02, 1.008198051534e-01
254, 4.041533180039e-01, 3.154758230925e-02, 1.008198051534e-01
255, 4.000000000000e-01, 3.181980515339e-02, 1.008198051534e-01
256, 3.958466819961e-01, 3.154758230925e-02, 1.008198051534e-01
257, 3.917644284149e-01, 3.073557158515e-02, 1.008198051534e-01
258, 3.878230877467e-01, 2.939766670972e-02, 1.008198051534e-01
259, 3.840900974233e-01, 2.755675960631e-02, 1.008198051534e-01
260, 3.806293299440e-01, 2.524434870586e-02, 1.008198051534e-01
261, 3.775000000000e-01, 2.250000000000e-02, 1.008198051534e-01
262, 3.747556512941e-01, 1.937067005596e-02, 1.008198051534e-01
263, 3.724432403937e-01, 1.590990257670e-02, 1.008198051534e-01
264, 3.706023332903e-01, 1.217691225329e-02, 1.008198051534e-01
265, 3.692644284149e-01, 8.235571585150e-03, 1.008198051534e-01
266, 3.684524176908e-01, 4.153318003857e-03, 1.008198051534e-01
267, 3.681801948466e-01, 3.896802253060e-18, 1.008198051534e-01
268, 3.684524176908e-01, -4.153318003857e-03, 1.008198051534e-01
269, 3.692644284149e-01, -8.235571585150e-03, 1.008198051534e-01
270, 3.706023332903e-01, -1.217691225329e-02, 1.008198051534e-01
271, 3.724432403937e-01, -1.590990257670e-02, 1.008198051534e-01
272, 3.747556512941e-01, -1.937067005596e-02, 1.008198051534e-01
273, 3.775000000000e-01, -2.250000000000e-02, 1.008198051534e-01
274, 3.806293299440e-01, -2.524434870586e-02, 1.008198051534e-01
275, 3.840900974233e-01, -2.755675960631e-02, 1.008198051534e-01
276, 3.878230877467e-01, -2.939766670972e-02, 1.008198051534e-01
277, 3.917644284149e-01, -3.073557158515e-02, 1.008198051534e-01
278, 3.958466819961e-01, -3.154758230925e-02, 1.008198051534e-01
279, 4.000000000000e-01, -3.181980515339e-02, 1.008198051534e-01
280, 4.041533180039e-01, -3.154758230925e-02, 1.008198051534e-01
281, 4.082355715851e-01, -3.073557158515e-02, 1.008198051534e-01
282, 4.121769122533e-01, -2.939766670972e-02, 1.008198051534e-01
283, 4.159099025767e-01, -2.755675960631e-02, 1.008198051534e-01
284, 4.193706700560e-01, -2.524434870586e-02, 1.008198051534e-01
285, 4.225000000000e-01, -2.250000000000e-02, 1.008198051534e-01
286, 4.252443487059e-01, -1.937067005596e-02, 1.008198051534e-01
287, 4.275567596063e-01, -1.590990257670e-02, 1.008198051534e-01
288, 4.293976667097e-01, -1.217691225329e-02, 1.008198051534e-01
289, 4.307355715851e-01, -8.235571585150e-03, 1.008198051534e-01
290, 4.315475823092e-01, -4.153318003857e-03, 1.008198051534e-01
291, 4.357009003131e-01, 0.000000000000e+00, 9.639426430539e-02
292, 4.353954741618e-01, 4.659902576697e-03, 9.639426430539e-02
293, 4.344844216342e-01, 9.240072928338e-03, 9.639426430539e-02
294, 4.329833310915e-01, 1.366214307034e-02, 9.639426430539e-02
295, 4.309178866091e-01, 1.785045015655e-02, 9.639426430539e-02
296, 4.283234285148e-01, 2.173333109150e-02, 9.639426430539e-02
297, 4.252443487059e-01, 2.524434870586e-02, 9.639426430539e-02
298, 4.217333310915e-01, 2.832342851481e-02, 9.639426430539e-02
299, 4.178504501566e-01, 3.091788660913e-02, 9.639426430539e-02
300, 4.136621430703e-01, 3.298333109150e-02, 9.639426430539e-02
301, 4.092400729283e-01, 3.448442163420e-02, 9.639426430539e-02
302, 4.046599025767e-01, 3.539547416185e-02, 9.639426430539e-02
303, 4.000000000000e-01, 3.570090031311e-02, 9.639426430539e-02
304, 3.953400974233e-01, 3.539547416185e-02, 9.639426430539e-02
305, 3.907599270717e-01, 3.448442163420e-02, 9.639426430539e-02
306, 3.863378569297e-01, 3.298333109150e-02, 9.639426430539e-02
307, 3.821495498434e-01, 3.091788660913e-02, 9.639426430539e-02
308, 3.782666689085e-01, 2.832342851481e-02, 9.639426430539e-02
309, 3.747556512941e-01, 2.524434870586e-02, 9.639426430539e-02
310, 3.716765714852e-01, 2.173333109150e-02, 9.639426430539e-02
311, 3.690821133909e-01, 1.785045015655e-02, 9.639426430539e-02
312, 3.670166689085e-01, 1.366214307034e-02, 9.639426430539e-02
313, 3.655155783658e-01, 9.240072928338e-03, 9.639426430539e-02
314, 3.646045258382e-01, 4.659902576697e-03, 9.639426430539e-02
315, 3.642990996869e-01, 4.372099329512e-18, 9.639426430539e-02
316, 3.646045258382e-01, -4.659902576697e-03, 9.639426430539e-02
317, 3.655155783658e-01, -9.240072928338e-03, 9.639426430539e-02
318, 3.670166689085e-01, -1.366214307034e-02, 9.639426430539e-02
319, 3.690821133909e-01, -1.785045015655e-02, 9.639426430539e-02
320, 3.716765714852e-01, -2.173333109150e-02, 9.639426430539e-02
321, 3.747556512941e-01, -2.524434870586e-02, 9.639426430539e-02
322, 3.782666689085e-01, -2.832342851481e-02, 9.639426430539e-02
323, 3.821495498434e-01, -3.091788660913e-02, 9.639426430539e-02
324, 3.863378569297e-01, -3.298333109150e-02, 9.639426430539e-02
325, 3.907599270717e-01, -3.448442163420e-02, 9.639426430539e-02
326, 3.953400974233e-01, -3.539547416185e-02, 9.639426430539e-02
327, 4.000000000000e-01, -3.570090031311e-02, 9.639426430539e-02
328, 4.046599025767e-01, -3.539547416185e-02, 9.639426430539e-02
329, 4.092400729283e-01, -3.448442163420e-02, 9.639426430539e-02
330, 4.136621430703e-01, -3.298333109150e-02, 9.639426430539e-02
331, 4.178504501566e-01, -3.091788660913e-02, 9.639426430539e-02
332, 4.217333310915e-01, -2.832342851481e-02, 9.639426430539e-02
333, 4.252443487059e-01, -2.524434870586e-02, 9.639426430539e-02
334, 4.283234285148e-01, -2.173333109150e-02, 9.639426430539e-02
335, 4.309178866091e-01, -1.785045015655e-02, 9.639426430539e-02
336, 4.329833310915e-01, -1.366214307034e-02, 9.639426430539e-02
337, 4.344844216342e-01, -9.240072928338e-03, 9.639426430539e-02
338, 4.353954741618e-01, -4.659902576697e-03, 9.639426430539e-02
339, 4.389711431703e-01, 0.000000000000e+00, 9.150000000000e-02
340, 4.386377396381e-01, 5.086754924482e-03, 9.150000000000e-02
341, 4.376432336682e-01, 1.008647406189e-02, 9.150000000000e-02
342, 4.360046415336e-01, 1.491361083160e-02, 9.150000000000e-02
343, 4.337500000000e-01, 1.948557158515e-02, 9.150000000000e-02
344, 4.309178866091e-01, 2.372412880646e-02, 9.150000000000e-02
345, 4.275567596063e-01, 2.755675960631e-02, 9.150000000000e-02
346, 4.237241288065e-01, 3.091788660913e-02, 9.150000000000e-02
347, 4.194855715851e-01, 3.375000000000e-02, 9.150000000000e-02
348, 4.149136108316e-01, 3.600464153361e-02, 9.150000000000e-02
349, 4.100864740619e-01, 3.764323366820e-02, 9.150000000000e-02
350, 4.050867549245e-01, 3.863773963806e-02, 9.150000000000e-02
351, 4.000000000000e-01, 3.897114317030e-02, 9.150000000000e-02
352, 3.949132450755e-01, 3.863773963806e-02, 9.150000000000e-02
353, 3.899135259381e-01, 3.764323366820e-02, 9.150000000000e-02
354, 3.850863891684e-01, 3.600464153361e-02, 9.150000000000e-02
355, 3.805144284149e-01, 3.375000000000e-02, 9.150000000000e-02
356, 3.762758711935e-01, 3.091788660913e-02, 9.150000000000e-02
357, 3.724432403937e-01, 2.755675960631e-02, 9.150000000000e-02
358, 3.690821133909e-01, 2.372412880646e-02, 9.150000000000e-02
359, 3.662500000000e-01, 1.948557158515e-02, 9.150000000000e-02
360, 3.639953584664e-01, 1.491361083160e-02, 9.150000000000e-02
361, 3.623567663318e-01, 1.008647406189e-02, 9.150000000000e-02
362, 3.613622603619e-01, 5.086754924482e-03, 9.150000000000e-02
363, 3.610288568297e-01, 4.772588574262e-18, 9.150000000000e-02
364, 3.613622603619e-01, -5.086754924482e-03, 9.150000000000e-02
365, 3.623567663318e-01, -1.008647406189e-02, 9.150000000000e-02
366, 3.639953584664e-01, -1.491361083160e-02, 9.150000000000e-02
367, 3.662500000000e-01, -1.948557158515e-02, 9.150000000000e-02
368, 3.690821133909e-01, -2.372412880646e-02, 9.150000000000e-02
369, 3.724432403937e-01, -2.755675960631e-02, 9.150000000000e-02
370, 3.762758711935e-01, -3.091788660913e-02, 9.150000000000e-02
371, 3.805144284149e-01, -3.375000000000e-02, 9.150000000000e-02
372, 3.850863891684e-01, -3.600464153361e-02, 9.150000000000e-02
373, 3.899135259381e-01, -3.764323366820e-02, 9.150000000000e-02
374, 3.949132450755e-01, -3.863773963806e-02, 9.150000000000e-02
375, 4.000000000000e-01, -3.897114317030e-02, 9.150000000000e-02
376, 4.050867549245e-01, -3.863773963806e-02, 9.150000000000e-02
377, 4.100864740619e-01, -3.764323366820e-02, 9.150000000000e-02
378, 4.149136108316e-01, -3.600464153361e-02, 9.150000000000e-02
379, 4.194855715851e-01, -3.375000000000e-02, 9.150000000000e-02
380, 4.237241288065e-01, -3.091788660913e-02, 9.150000000000e-02
381, 4.275567596063e-01, -2.755675960631e-02, 9.150000000000e-02
382, 4.309178866091e-01, -2.372412880646e-02, 9.150000000000e-02
383, 4.337500000000e-01, -1.948557158515e-02, 9.150000000000e-02
384, 4.360046415336e-01, -1.491361083160e-02, 9.150000000000e-02
385, 4.376432336682e-01, -1.008647406189e-02, 9.150000000000e-02
386, 4.386377396381e-01, -5.086754924482e-03, 9.150000000000e-02
387, 4.415745789630e-01, 0.000000000000e+00, 8.622075445643e-02
388, 4.412189026767e-01, 5.426571485193e-03, 8.622075445643e-02
389, 4.401579595375e-01, 1.076029282775e-02, 8.622075445643e-02
390, 4.384099025767e-01, 1.590990257670e-02, 8.622075445643e-02
391, 4.360046415336e-01, 2.078728948150e-02, 8.622075445643e-02
392, 4.329833310915e-01, 2.530900009996e-02, 8.622075445643e-02
393, 4.293976667097e-01, 2.939766670972e-02, 8.622075445643e-02
394, 4.253090001000e-01, 3.298333109150e-02, 8.622075445643e-02
395, 4.207872894815e-01, 3.600464153361e-02, 8.622075445643e-02
396, 4.159099025767e-01, 3.840990257670e-02, 8.622075445643e-02
397, 4.107602928277e-01, 4.015795953746e-02, 8.622075445643e-02
398, 4.054265714852e-01, 4.121890267665e-02, 8.622075445643e-02
399, 4.000000000000e-01, 4.157457896301e-02, 8.622075445643e-02
400, 3.945734285148e-01, 4.121890267665e-02, 8.622075445643e-02
401, 3.892397071723e-01, 4.015795953746e-02, 8.622075445643e-02
402, 3.840900974233e-01, 3.840990257670e-02, 8.622075445643e-02
403, 3.792127105185e-01, 3.600464153361e-02, 8.622075445643e-02
404, 3.746909999000e-01, 3.298333109150e-02, 8.622075445643e-02
405, 3.706023332903e-01, 2.939766670972e-02, 8.622075445643e-02
406, 3.670166689085e-01, 2.530900009996e-02, 8.622075445643e-02
407, 3.639953584664e-01, 2.078728948150e-02, 8.622075445643e-02
408, 3.615900974233e-01, 1.590990257670e-02, 8.622075445643e-02
409, 3.598420404625e-01, 1.076029282775e-02, 8.622075445643e-02
410, 3.587810973233e-01, 5.426571485193e-03, 8.622075445643e-02
411, 3.584254210370e-01, 5.091417505295e-18, 8.622075445643e-02
412, 3.587810973233e-01, -5.426571485193e-03, 8.622075445643e-02
413, 3.598420404625e-01, -1.076029282775e-02, 8.622075445643e-02
414, 3.615900974233e-01, -1.590990257670e-02, 8.622075445643e-02
415, 3.639953584664e-01, -2.078728948150e-02, 8.622075445643e-02
416, 3.670166689085e-01, -2.530900009996e-02, 8.622075445643e-02
417, 3.706023332903e-01, -2.939766670972e-02, 8.622075445643e-02
418, 3.746909999000e-01, -3.298333109150e-02, 8.622075445643e-02
419, 3.792127105185e-01, -3.600464153361e-02, 8.622075445643e-02
420, 3.840900974233e-01, -3.840990257670e-02, 8.622075445643e-02
421, 3.892397071723e-01, -4.015795953746e-02, 8.622075445643e-02
422, 3.945734285148e-01, -4.121890267665e-02, 8.622075445643e-02
423, 4.000000000000e-01, -4.157457896301e-02, 8.622075445643e-02
424, 4.054265714852e-01, -4.121890267665e-02, 8.622075445643e-02
425, 4.107602928277e-01, -4.015795953746e-02, 8.622075445643e-02
426, 4.159099025767e-01, -3.840990257670e-02, 8.622075445643e-02
427, 4.207872894815e-01, -3.600464153361e-02, 8.622075445643e-02
428, 4.253090001000e-01, -3.298333109150e-02, 8.622075445643e-02
429, 4.293976667097e-01, -2.939766670972e-02, 8.622075445643e-02
430, 4.329833310915e-01, -2.530900009996e-02, 8.622075445643e-02
431, 4.360046415336e-01, -2.078728948150e-02, 8.622075445643e-02
432, 4.384099025767e-01, -1.590990257670e-02, 8.622075445643e-02
433, 4.401579595375e-01, -1.076029282775e-02, 8.622075445643e-02
434, 4.412189026767e-01, -5.426571485193e-03, 8.622075445643e-02
435, 4.434666621830e-01, 0.000000000000e+00, 8.064685702961e-02
436, 4.430947988624e-01, 5.673537903263e-03, 8.064685702961e-02
437, 4.419855715851e-01, 1.125000000000e-02, 8.064685702961e-02
438, 4.401579595375e-01, 1.663397147765e-02, 8.064685702961e-02
439, 4.376432336682e-01, 2.173333109150e-02, 8.064685702961e-02
440, 4.344844216342e-01, 2.646082738477e-02, 8.064685702961e-02
441, 4.307355715851e-01, 3.073557158515e-02, 8.064685702961e-02
442, 4.264608273848e-01, 3.448442163420e-02, 8.064685702961e-02
443, 4.217333310915e-01, 3.764323366820e-02, 8.064685702961e-02
444, 4.166339714776e-01, 4.015795953746e-02, 8.064685702961e-02
445, 4.112500000000e-01, 4.198557158515e-02, 8.064685702961e-02
446, 4.056735379033e-01, 4.309479886241e-02, 8.064685702961e-02
447, 4.000000000000e-01, 4.346666218301e-02, 8.064685702961e-02
448, 3.943264620967e-01, 4.309479886241e-02, 8.064685702961e-02
449, 3.887500000000e-01, 4.198557158515e-02, 8.064685702961e-02
450, 3.833660285224e-01, 4.015795953746e-02, 8.064685702961e-02
451, 3.782666689085e-01, 3.764323366820e-02, 8.064685702961e-02
452, 3.735391726152e-01, 3.448442163420e-02, 8.064685702961e-02
453, 3.692644284149e-01, 3.073557158515e-02, 8.064685702961e-02
454, 3.655155783658e-01, 2.646082738477e-02, 8.064685702961e-02
455, 3.623567663318e-01, 2.173333109150e-02, 8.064685702961e-02
456, 3.598420404625e-01, 1.663397147765e-02, 8.064685702961e-02
457, 3.580144284149e-01, 1.125000000000e-02, 8.064685702961e-02
458, 3.569052011376e-01, 5.673537903263e-03, 8.064685702961e-02
459, 3.565333378170e-01, 5.323130871204e-18, 8.064685702961e-02
460, 3.569052011376e-01, -5.673537903263e-03, 8.064685702961e-02
461, 3.580144284149e-01, -1.125000000000e-02, 8.064685702961e-02
462, 3.598420404625e-01, -1.663397147765e-02, 8.064685702961e-02
463, 3.623567663318e-01, -2.173333109150e-02, 8.064685702961e-02
464, 3.655155783658e-01, -2.646082738477e-02, 8.064685702961e-02
465, 3.692644284149e-01, -3.073557158515e-02, 8.064685702961e-02
466, 3.735391726152e-01, -3.448442163420e-02, 8.064685702961e-02
467, 3.782666689085e-01, -3.764323366820e-02, 8.064685702961e-02
468, 3.833660285224e-01, -4.015795953746e-02, 8.064685702961e-02
469, 3.887500000000e-01, -4.198557158515e-02, 8.064685702961e-02
470, 3.943264620967e-01, -4.309479886241e-02, 8.064685702961e-02
471, 4.000000000000e-01, -4.346666218301e-02, 8.064685702961e-02
472, 4.056735379033e-01, -4.309479886241e-02, 8.064685702961e-02
473, 4.112500000000e-01, -4.198557158515e-02, 8.064685702961e-02
474, 4.166339714776e-01, -4.015795953746e-02, 8.064685702961e-02
475, 4.217333310915e-01, -3.764323366820e-02, 8.064685702961e-02
476, 4.264608273848e-01, -3.448442163420e-02, 8.064685702961e-02
477, 4.307355715851e-01, -3.073557158515e-02, 8.064685702961e-02
478, 4.344844216342e-01, -2.646082738477e-02, 8.064685702961e-02
479, 4.376432336682e-01, -2.173333109150e-02, 8.064685702961e-02
480, 4.401579595375e-01, -1.663397147765e-02, 8.064685702961e-02
481, 4.419855715851e-01, -1.125000000000e-02, 8.064685702961e-02
482, 4.430947988624e-01, -5.673537903263e-03, 8.064685702961e-02
483, 4.446150187618e-01, 0.000000000000e+00, 7.487367864990e-02
484, 4.442333310915e-01, 5.823428514807e-03, 7.487367864990e-02
485, 4.430947988624e-01, 1.154721655317e-02, 7.487367864990e-02
486, 4.412189026767e-01, 1.707342851481e-02, 7.487367864990e-02
487, 4.386377396381e-01, 2.230750938091e-02, 7.487367864990e-02
488, 4.353954741618e-01, 2.715990257670e-02, 7.487367864990e-02
489, 4.315475823092e-01, 3.154758230925e-02, 7.487367864990e-02
490, 4.271599025767e-01, 3.539547416185e-02, 7.487367864990e-02
491, 4.223075093809e-01, 3.863773963806e-02, 7.487367864990e-02
492, 4.170734285148e-01, 4.121890267665e-02, 7.487367864990e-02
493, 4.115472165532e-01, 4.309479886241e-02, 7.487367864990e-02
494, 4.058234285148e-01, 4.423333109150e-02, 7.487367864990e-02
495, 4.000000000000e-01, 4.461501876182e-02, 7.487367864990e-02
496, 3.941765714852e-01, 4.423333109150e-02, 7.487367864990e-02
497, 3.884527834468e-01, 4.309479886241e-02, 7.487367864990e-02
498, 3.829265714852e-01, 4.121890267665e-02, 7.487367864990e-02
499, 3.776924906191e-01, 3.863773963806e-02, 7.487367864990e-02
500, 3.728400974233e-01, 3.539547416185e-02, 7.487367864990e-02
501, 3.684524176908e-01, 3.154758230925e-02, 7.487367864990e-02
502, 3.646045258382e-01, 2.715990257670e-02, 7.487367864990e-02
503, 3.613622603619e-01, 2.230750938091e-02, 7.487367864990e-02
504, 3.587810973233e-01, 1.707342851481e-02, 7.487367864990e-02
505, 3.569052011376e-01, 1.154721655317e-02, 7.487367864990e-02
506, 3.557666689085e-01, 5.823428514807e-03, 7.487367864990e-02
507, 3.553849812382e-01, 5.463763992056e-18, 7.487367864990e-02
508, 3.557666689085e-01, -5.823428514807e-03, 7.487367864990e-02
509, 3.569052011376e-01, -1.154721655317e-02, 7.487367864990e-02
510, 3.587810973233e-01, -1.707342851481e-02, 7.487367864990e-02
511, 3.613622603619e-01, -2.230750938091e-02, 7.487367864990e-02
512, 3.646045258382e-01, -2.715990257670e-02, 7.487367864990e-02
513, 3.684524176908e-01, -3.154758230925e-02, 7.487367864990e-02
514, 3.728400974233e-01, -3.539547416185e-02, 7.487367864990e-02
515, 3.776924906191e-01, -3.863773963806e-02, 7.487367864990e-02
516, 3.829265714852e-01, -4.121890267665e-02, 7.487367864990e-02
517, 3.884527834468e-01, -4.309479886241e-02, 7.487367864990e-02
518, 3.941765714852e-01, -4.423333109150e-02, 7.487367864990e-02
519, 4.000000000000e-01, -4.461501876182e-02, 7.487367864990e-02
520, 4.058234285148e-01, -4.423333109150e-02, 7.487367864990e-02
521, 4.115472165532e-01, -4.309479886241e-02, 7.487367864990e-02
522, 4.170734285148e-01, -4.121890267665e-02, 7.487367864990e-02
523, 4.223075093809e-01, -3.863773963806e-02, 7.487367864990e-02
524, 4.271599025767e-01, -3.539547416185e-02, 7.487367864990e-02
525, 4.315475823092e-01, -3.154758230925e-02, 7.487367864990e-02
526, 4.353954741618e-01, -2.715990257670e-02, 7.487367864990e-02
527, 4.386377396381e-01, -2.230750938091e-02, 7.487367864990e-02
528, 4.412189026767e-01, -1.707342851481e-02, 7.487367864990e-02
529, 4.430947988624e-01, -1.154721655317e-02, 7.487367864990e-02
530, 4.442333310915e-01, -5.823428514807e-03, 7.487367864990e-02
531, 4.450000000000e-01, 0.000000000000e+00, 6.900000000000e-02
532, 4.446150187618e-01, 5.873678649902e-03, 6.900000000000e-02
533, 4.434666621830e-01, 1.164685702961e-02, 6.900000000000e-02
534, 4.415745789630e-01, 1.722075445643e-02, 6.900000000000e-02
535, 4.389711431703e-01, 2.250000000000e-02, 6.900000000000e-02
536, 4.357009003131e-01, 2.739426430539e-02, 6.900000000000e-02
537, 4.318198051534e-01, 3.181980515339e-02, 6.900000000000e-02
538, 4.273942643054e-01, 3.570090031311e-02, 6.900000000000e-02
539, 4.225000000000e-01, 3.897114317030e-02, 6.900000000000e-02
540, 4.172207544564e-01, 4.157457896301e-02, 6.900000000000e-02
541, 4.116468570296e-01, 4.346666218301e-02, 6.900000000000e-02
542, 4.058736786499e-01, 4.461501876182e-02, 6.900000000000e-02
543, 4.000000000000e-01, 4.500000000000e-02, 6.900000000000e-02
544, 3.941263213501e-01, 4.461501876182e-02, 6.900000000000e-02
545, 3.883531429704e-01, 4.346666218301e-02, 6.900000000000e-02
546, 3.827792455436e-01, 4.157457896301e-02, 6.900000000000e-02
547, 3.775000000000e-01, 3.897114317030e-02, 6.900000000000e-02
548, 3.726057356946e-01, 3.570090031311e-02, 6.900000000000e-02
549, 3.681801948466e-01, 3.181980515339e-02, 6.900000000000e-02
550, 3.642990996869e-01, 2.739426430539e-02, 6.900000000000e-02
551, 3.610288568297e-01, 2.250000000000e-02, 6.900000000000e-02
552, 3.584254210370e-01, 1.722075445643e-02, 6.900000000000e-02
553, 3.565333378170e-01, 1.164685702961e-02, 6.900000000000e-02
554, 3.553849812382e-01, 5.873678649902e-03, 6.900000000000e-02
555, 3.550000000000e-01, 5.510910596163e-18, 6.900000000000e-02
556, 3.553849812382e-01, -5.873678649902e-03, 6.900000000000e-02
557, 3.565333378170e-01, -1.164685702961e-02, 6.900000000000e-02
558, 3.584254210370e-01, -1.722075445643e-02, 6.900000000000e-02
559, 3.610288568297e-01, -2.250000000000e-02, 6.900000000000e-02
560, 3.642990996869e-01, -2.739426430539e-02, 6.900000000000e-02
561, 3.681801948466e-01, -3.181980515339e-02, 6.900000000000e-02
562, 3.726057356946e-01, -3.570090031311e-02, 6.900000000000e-02
563, 3.775000000000e-01, -3.897114317030e-02, 6.900000000000e-02
564, 3.827792455436e-01, -4.157457896301e-02, 6.900000000000e-02
565, 3.883531429704e-01, -4.346666218301e-02, 6.900000000000e-02
566, 3.941263213501e-01, -4.461501876182e-02, 6.900000000000e-02
567, 4.000000000000e-01, -4.500000000000e-02, 6.900000000000e-02
568, 4.058736786499e-01, -4.461501876182e-02, 6.900000000000e-02
569, 4.116468570296e-01, -4.346666218301e-02, 6.900000000000e-02
570, 4.172207544564e-01, -4.157457896301e-02, 6.900000000000e-02
571, 4.225000000000e-01, -3.897114317030e-02, 6.900000000000e-02
572, 4.273942643054e-01, -3.570090031311e-02, 6.900000000000e-02
573, 4.318198051534e-01, -3.181980515339e-02, 6.900000000000e-02
574, 4.357009003131e-01, -2.739426430539e-02, 6.900000000000e-02
575, 4.389711431703e-01, -2.250000000000e-02, 6.900000000000e-02
576, 4.415745789630e-01, -1.722075445643e-02, 6.900000000000e-02
577, 4.434666621830e-01, -1.164685702961e-02, 6.900000000000e-02
578, 4.446150187618e-01, -5.873678649902e-03, 6.900000000000e-02
579, 4.446150187618e-01, 0.000000000000e+00, 6.312632135010e-02
580, 4.442333310915e-01, 5.823428514807e-03, 6.312632135010e-02
581, 4.430947988624e-01, 1.154721655317e-02, 6.312632135010e-02
582, 4.412189026767e-01, 1.707342851481e-02, 6.312632135010e-02
583, 4.386377396381e-01, 2.230750938091e-02, 6.312632135010e-02
584, 4.353954741618e-01, 2.715990257670e-02, 6.312632135010e-02
585, 4.315475823092e-01, 3.154758230925e-02, 6.312632135010e-02
586, 4.271599025767e-01, 3.539547416185e-02, 6.312632135010e-02
587, 4.223075093809e-01, 3.863773963806e-02, 6.312632135010e-02
588, 4.170734285148e-01, 4.121890267665e-02, 6.312632135010e-02
589, 4.115472165532e-01, 4.309479886241e-02, 6.312632135010e-02
590, 4.058234285148e-01, 4.423333109150e-02, 6.312632135010e-02
591, 4.000000000000e-01, 4.461501876182e-02, 6.312632135010e-02
592, 3.941765714852e-01, 4.423333109150e-02, 6.312632135010e-02
593, 3.884527834468e-01, 4.309479886241e-02, 6.312632135010e-02
594, 3.829265714852e-01, 4.121890267665e-02, 6.312632135010e-02
595, 3.776924906191e-01, 3.863773963806e-02, 6.312632135010e-02
596, 3.728400974233e-01, 3.539547416185e-02, 6.312632135010e-02
597, 3.684524176908e-01, 3.154758230925e-02, 6.312632135010e-02
598, 3.646045258382e-01, 2.715990257670e-02, 6.312632135010e-02
599, 3.613622603619e-01, 2.230750938091e-02, 6.312632135010e-02
600, 3.587810973233e-01, 1.707342851481e-02, 6.312632135010e-02
601, 3.569052011376e-01, 1.154721655317e-02, 6.312632135010e-02
602, 3.557666689085e-01, 5.823428514807e-03, 6.312632135010e-02
603, 3.553849812382e-01, 5.463763992056e-18, 6.312632135010e-02
604, 3.557666689085e-01, -5.823428514807e-03, 6.312632135010e-02
605, 3.569052011376e-01, -1.154721655317e-02, 6.312632135010e-02
606, 3.587810973233e-01, -1.707342851481e-02, 6.312632135010e-02
607, 3.613622603619e-01, -2.230750938091e-02, 6.312632135010e-02
608, 3.646045258382e-01, -2.715990257670e-02, 6.312632135010e-02
609, 3.684524176908e-01, -3.154758230925e-02, 6.312632135010e-02
610, 3.728400974233e-01, -3.539547416185e-02, 6.312632135010e-02
611, 3.776924906191e-01, -3.863773963806e-02, 6.312632135010e-02
612, 3.829265714852e-01, -4.121890267665e-02, 6.312632135010e-02
613, 3.884527834468e-01, -4.309479886241e-02, 6.312632135010e-02
614, 3.941765714852e-01, -4.423333109150e-02, 6.312632135010e-02
615, 4.000000000000e-01, -4.461501876182e-02, 6.312632135010e-02
616, 4.058234285148e-01, -4.423333109150e-02, 6.312632135010e-02
617, 4.115472165532e-01, -4.309479886241e-02, 6.312632135010e-02
618, 4.170734285148e-01, -4.121890267665e-02, 6.312632135010e-02
619, 4.223075093809e-01, -3.863773963806e-02, 6.312632135010e-02
620, 4.271599025767e-01, -3.539547416185e-02, 6.312632135010e-02
621, 4.315475823092e-01, -3.154758230925e-02, 6.312632135010e-02
622, 4.353954741618e-01, -2.715990257670e-02, 6.312632135010e-02
623, 4.386377396381e-01, -2.230750938091e-02, 6.312632135010e-02
624, 4.412189026767e-01, -1.707342851481e-02, 6.312632135010e-02
625, 4.430947988624e-01, -1.154721655317e-02, 6.312632135010e-02
626, 4.442333310915e-01, -5.823428514807e-03, 6.312632135010e-02
627, 4.434666621830e-01, 0.000000000000e+00, 5.735314297039e-02
628, 4.430947988624e-01, 5.673537903263e-03, 5.735314297039e-02
629, 4.419855715851e-01, 1.125000000000e-02, 5.735314297039e-02
630, 4.401579595375e-01, 1.663397147765e-02, 5.735314297039e-02
631, 4.376432336682e-01, 2.173333109150e-02, 5.735314297039e-02
632, 4.344844216342e-01, 2.646082738477e-02, 5.735314297039e-02
633, 4.307355715851e-01, 3.073557158515e-02, 5.735314297039e-02
634, 4.264608273848e-01, 3.448442163420e-02, 5.735314297039e-02
635, 4.217333310915e-01, 3.764323366820e-02, 5.735314297039e-02
636, 4.166339714776e-01, 4.015795953746e-02, 5.735314297039e-02
637, 4.112500000000e-01, 4.198557158515e-02, 5.735314297039e-02
638, 4.056735379033e-01, 4.309479886241e-02, 5.735314297039e-02
639, 4.000000000000e-01, 4.346666218301e-02, 5.735314297039e-02
640, 3.943264620967e-01, 4.309479886241e-02, 5.735314297039e-02
641, 3.887500000000e-01, 4.198557158515e-02, 5.735314297039e-02
642, 3.833660285224e-01, 4.015795953746e-02, 5.735314297039e-02
643, 3.782666689085e-01, 3.764323366820e-02, 5.735314297039e-02
644, 3.735391726152e-01, 3.448442163420e-02, 5.735314297039e-02
645, 3.692644284149e-01, 3.073557158515e-02, 5.735314297039e-02
646, 3.655155783658e-01, 2.646082738477e-02, 5.735314297039e-02
647, 3.623567663318e-01, 2.173333109150e-02, 5.735314297039e-02
648, 3.598420404625e-01, 1.663397147765e-02, 5.735314297039e-02
649, 3.580144284149e-01, 1.125000000000e-02, 5.735314297039e-02
650, 3.569052011376e-01, 5.673537903263e-03, 5.735314297039e-02
651, 3.565333378170e-01, 5.323130871204e-18, 5.735314297039e-02
652, 3.569052011376e-01, -5.673537903263e-03, 5.735314297039e-02
653, 3.580144284149e-01, -1.125000000000e-02, 5.735314297039e-02
654, 3.598420404625e-01, -1.663397147765e-02, 5.735314297039e-02
655, 3.623567663318e-01, -2.173333109150e-02, 5.735314297039e-02
656, 3.655155783658e-01, -2.646082738477e-02, 5.735314297039e-02
657, 3.692644284149e-01, -3.073557158515e-02, 5.735314297039e-02
658, 3.735391726152e-01, -3.448442163420e-02, 5.735314297039e-02
659, 3.782666689085e-01, -3.764323366820e-02, 5.735314297039e-02
660, 3.833660285224e-01, -4.015795953746e-02, 5.735314297039e-02
661, 3.887500000000e-01, -4.198557158515e-02, 5.735314297039e-02
662, 3.943264620967e-01, -4.309479886241e-02, 5.735314297039e-02
663, 4.000000000000e-01, -4.346666218301e-02, 5.735314297039e-02
664, 4.056735379033e-01, -4.309479886241e-02, 5.735314297039e-02
665, 4.112500000000e-01, -4.198557158515e-02, 5.735314297039e-02
666, 4.166339714776e-01, -4.015795953746e-02, 5.735314297039e-02
667, 4.217333310915e-01, -3.764323366820e-02, 5.735314297039e-02
668, 4.264608273848e-01, -3.448442163420e-02, 5.735314297039e-02
669, 4.307355715851e-01, -3.073557158515e-02, 5.735314297039e-02
670, 4.344844216342e-01, -2.646082738477e-02, 5.735314297039e-02
671, 4.376432336682e-01, -2.173333109150e-02, 5.735314297039e-02
672, 4.401579595375e-01, -1.663397147765e-02, 5.735314297039e-02
673, 4.419855715851e-01, -1.125000000000e-02, 5.735314297039e-02
674, 4.430947988624e-01, -5.673537903263e-03, 5.735314297039e-02
675, 4.415745789630e-01, 0.000000000000e+00, 5.177924554357e-02
676, 4.412189026767e-01, 5.426571485193e-03, 5.177924554357e-02
677, 4.401579595375e-01, 1.076029282775e-02, 5.177924554357e-02
678, 4.384099025767e-01, 1.590990257670e-02, 5.177924554357e-02
679, 4.360046415336e-01, 2.078728948150e-02, 5.177924554357e-02
680, 4.329833310915e-01, 2.530900009996e-02, 5.177924554357e-02
681, 4.293976667097e-01, 2.939766670972e-02, 5.177924554357e-02
682, 4.253090001000e-01, 3.298333109150e-02, 5.177924554357e-02
683, 4.207872894815e-01, 3.600464153361e-02, 5.177924554357e-02
684, 4.159099025767e-01, 3.840990257670e-02, 5.177924554357e-02
685, 4.107602928277e-01, 4.015795953746e-02, 5.177924554357e-02
686, 4.054265714852e-01, 4.121890267665e-02, 5.177924554357e-02
687, 4.000000000000e-01, 4.157457896301e-02, 5.177924554357e-02
688, 3.945734285148e-01, 4.121890267665e-02, 5.177924554357e-02
689, 3.892397071723e-01, 4.015795953746e-02, 5.177924554357e-02
690, 3.840900974233e-01, 3.840990257670e-02, 5.177924554357e-02
691, 3.792127105185e-01, 3.600464153361e-02, 5.177924554357e-02
692, 3.746909999000e-01, 3.298333109150e-02, 5.177924554357e-02
693, 3.706023332903e-01, 2.939766670972e-02, 5.177924554357e-02
694, 3.670166689085e-01, 2.530900009996e-02, 5.177924554357e-02
695, 3.639953584664e-01, 2.078728948150e-02, 5.177924554357e-02
696, 3.615900974233e-01, 1.590990257670e-02, 5.177924554357e-02
697, 3.598420404625e-01, 1.076029282775e-02, 5.177924554357e-02
698, 3.587810973233e-01, 5.426571485193e-03, 5.177924554357e-02
699, 3.584254210370e-01, 5.091417505295e-18, 5.177924554357e-02
700, 3.587810973233e-01, -5.426571485193e-03, 5.177924554357e-02
701, 3.598420404625e-01, -1.076029282775e-02, 5.177924554357e-02
702, 3.615900974233e-01, -1.590990257670e-02, 5.177924554357e-02
703, 3.639953584664e-01, -2.078728948150e-02, 5.177924554357e-02
704, 3.670166689085e-01, -2.530900009996e-02, 5.177924554357e-02
705, 3.706023332903e-01, -2.939766670972e-02, 5.177924554357e-02
706, 3.746909999000e-01, -3.298333109150e-02, 5.177924554357e-02
707, 3.792127105185e-01, -3.600464153361e-02, 5.177924554357e-02
708, 3.840900974233e-01, -3.840990257670e-02, 5.177924554357e-02
709, 3.892397071723e-01, -4.015795953746e-02, 5.177924554357e-02
710, 3.945734285148e-01, -4.121890267665e-02, 5.177924554357e-02
711, 4.000000000000e-01, -4.157457896301e-02, 5.177924554357e-02
712, 4.054265714852e-01, -4.121890267665e-02, 5.177924554357e-02
713, 4.107602928277e-01, -4.015795953746e-02, 5.177924554357e-02
714, 4.159099025767e-01, -3.840990257670e-02, 5.177924554357e-02
715, 4.207872894815e-01, -3.600464153361e-02, 5.177924554357e-02
716, 4.253090001000e-01, -3.298333109150e-02, 5.177924554357e-02
717, 4.293976667097e-01, -2.939766670972e-02, 5.177924554357e-02
718, 4.329833310915e-01, -2.530900009996e-02, 5.177924554357e-02
719, 4.360046415336e-01, -2.078728948150e-02, 5.177924554357e-02
720, 4.384099025767e-01, -1.590990257670e-02, 5.177924554357e-02
721, 4.401579595375e-01, -1.076029282775e-02, 5.177924554357e-02
722, 4.412189026767e-01, -5.426571485193e-03, 5.177924554357e-02
723, 4.389711431703e-01, 0.000000000000e+00, 4.650000000000e-02
724, 4.386377396381e-01, 5.086754924482e-03, 4.650000000000e-02
725, 4.376432336682e-01, 1.008647406189e-02, 4.650000000000e-02
726, 4.360046415336e-01, 1.491361083160e-02, 4.650000000000e-02
727, 4.337500000000e-01, 1.948557158515e-02, 4.650000000000e-02
728, 4.309178866091e-01, 2.372412880646e-02, 4.650000000000e-02
729, 4.275567596063e-01, 2.755675960631e-02, 4.650000000000e-02
730, 4.237241288065e-01, 3.091788660913e-02, 4.650000000000e-02
731, 4.194855715851e-01, 3.375000000000e-02, 4.650000000000e-02
732, 4.149136108316e-01, 3.600464153361e-02, 4.650000000000e-02
733, 4.100864740619e-01, 3.764323366820e-02, 4.650000000000e-02
734, 4.050867549245e-01, 3.863773963806e-02, 4.650000000000e-02
735, 4.000000000000e-01, 3.897114317030e-02, 4.650000000000e-02
736, 3.949132450755e-01, 3.863773963806e-02, 4.650000000000e-02
737, 3.899135259381e-01, 3.764323366820e-02, 4.650000000000e-02
738, 3.850863891684e-01, 3.600464153361e-02, 4.650000000000e-02
739, 3.805144284149e-01, 3.375000000000e-02, 4.650000000000e-02
740, 3.762758711935e-01, 3.091788660913e-02, 4.650000000000e-02
741, 3.724432403937e-01, 2.755675960631e-02, 4.650000000000e-02
742, 3.690821133909e-01, 2.372412880646e-02, 4.650000000000e-02
743, 3.662500000000e-01, 1.948557158515e-02, 4.650000000000e-02
744, 3.639953584664e-01, 1.491361083160e-02, 4.650000000000e-02
745, 3.623567663318e-01, 1.008647406189e-02, 4.650000000000e-02
746, 3.613622603619e-01, 5.086754924482e-03, 4.650000000000e-02
747, 3.610288568297e-01, 4.772588574262e-18, 4.650000000000e-02
748, 3.613622603619e-01, -5.086754924482e-03, 4.650000000000e-02
749, 3.623567663318e-01, -1.008647406189e-02, 4.650000000000e-02
750, 3.639953584664e-01, -1.491361083160e-02, 4.650000000000e-02
751, 3.662500000000e-01, -1.948557158515e-02, 4.650000000000e-02
752, 3.690821133909e-01, -2.372412880646e-02, 4.650000000000e-02
753, 3.724432403937e-01, -2.755675960631e-02, 4.650000000000e-02
754, 3.762758711935e-01, -3.091788660913e-02, 4.650000000000e-02
755, 3.805144284149e-01, -3.375000000000e-02, 4.650000000000e-02
756, 3.850863891684e-01, -3.600464153361e-02, 4.650000000000e-02
757, 3.899135259381e-01, -3.764323366820e-02, 4.650000000000e-02
758, 3.949132450755e-01, -3.863773963806e-02, 4.650000000000e-02
759, 4.000000000000e-01, -3.897114317030e-02, 4.650000000000e-02
760, 4.050867549245e-01, -3.863773963806e-02, 4.650000000000e-02
761, 4.100864740619e-01, -3.764323366820e-02, 4.650000000000e-02
762, 4.149136108316e-01, -3.600464153361e-02, 4.650000000000e-02
763, 4.194855715851e-01, -3.375000000000e-02, 4.650000000000e-02
764, 4.237241288065e-01, -3.091788660913e-02, 4.650000000000e-02
765, 4.275567596063e-01, -2.755675960631e-02, 4.650000000000e-02
766, 4.309178866091e-01, -2.372412880646e-02, 4.650000000000e-02
767, 4.337500000000e-01, -1.948557158515e-02, 4.650000000000e-02
768, 4.360046415336e-01, -1.491361083160e-02, 4.650000000000e-02
769, 4.376432336682e-01, -1.008647406189e-02, 4.650000000000e-02
770, 4.386377396381e-01, -5.086754924482e-03, 4.650000000000e-02
771, 4.357009003131e-01, 0.000000000000e+00, 4.160573569461e-02
772, 4.353954741618e-01, 4.659902576697e-03, 4.160573569461e-02
773, 4.344844216342e-01, 9.240072928338e-03, 4.160573569461e-02
774, 4.329833310915e-01, 1.366214307034e-02, 4.160573569461e-02
775, 4.309178866091e-01, 1.785045015655e-02, 4.160573569461e-02
776, 4.283234285148e-01, 2.173333109150e-02, 4.160573569461e-02
777, 4.252443487059e-01, 2.524434870586e-02, 4.160573569461e-02
778, 4.217333310915e-01, 2.832342851481e-02, 4.160573569461e-02
779, 4.178504501566e-01, 3.091788660913e-02, 4.160573569461e-02
780, 4.136621430703e-01, 3.298333109150e-02, 4.160573569461e-02
781, 4.092400729283e-01, 3.448442163420e-02, 4.160573569461e-02
782, 4.046599025767e-01, 3.539547416185e-02, 4.160573569461e-02
783, 4.000000000000e-01, 3.570090031311e-02, 4.160573569461e-02
784, 3.953400974233e-01, 3.539547416185e-02, 4.160573569461e-02
785, 3.907599270717e-01, 3.448442163420e-02, 4.160573569461e-02
786, 3.863378569297e-01, 3.298333109150e-02, 4.160573569461e-02
787, 3.821495498434e-01, 3.091788660913e-02, 4.160573569461e-02
788, 3.782666689085e-01, 2.832342851481e-02, 4.160573569461e-02
789, 3.747556512941e-01, 2.524434870586e-02, 4.160573569461e-02
790, 3.716765714852e-01, 2.173333109150e-02, 4.160573569461e-02
791, 3.690821133909e-01, 1.785045015655e-02, 4.160573569461e-02
792, 3.670166689085e-01, 1.366214307034e-02, 4.160573569461e-02
793, 3.655155783658e-01, 9.240072928338e-03, 4.160573569461e-02
794, 3.646045258382e-01, 4.659902576697e-03, 4.160573569461e-02
795, 3.642990996869e-01, 4.372099329512e-18, 4.160573569461e-02
796, 3.646045258382e-01, -4.659902576697e-03, 4.160573569461e-02
797, 3.655155783658e-01, -9.240072928338e-03, 4.160573569461e-02
798, 3.670166689085e-01, -1.366214307034e-02, 4.160573569461e-02
799, 3.690821133909e-01, -1.785045015655e-02, 4.160573569461e-02
800, 3.716765714852e-01, -2.173333109150e-02, 4.160573569461e-02
801, 3.747556512941e-01, -2.524434870586e-02, 4.160573569461e-02
802, 3.782666689085e-01, -2.832342851481e-02, 4.160573569461e-02
803, 3.821495498434e-01, -3.091788660913e-02, 4.160573569461e-02
804, 3.863378569297e-01, -3.298333109150e-02, 4.160573569461e-02
805, 3.907599270717e-01, -3.448442163420e-02, 4.160573569461e-02
806, 3.953400974233e-01, -3.539547416185e-02, 4.160573569461e-02
807, 4.000000000000e-01, -3.570090031311e-02, 4.160573569461e-02
808, 4.046599025767e-01, -3.539547416185e-02, 4.160573569461e-02
809, 4.092400729283e-01, -3.448442163420e-02, 4.160573569461e-02
810, 4.136621430703e-01, -3.298333109150e-02, 4.160573569461e-02
811, 4.178504501566e-01, -3.091788660913e-02, 4.160573569461e-02
812, 4.217333310915e-01, -2.832342851481e-02, 4.160573569461e-02
813, 4.252443487059e-01, -2.524434870586e-02, 4.160573569461e-02
814, 4.283234285148e-01, -2.173333109150e-02, 4.160573569461e-02
815, 4.309178866091e-01, -1.785045015655e-02, 4.160573569461e-02
816, 4.329833310915e-01, -1.366214307034e-02, 4.160573569461e-02
817, 4.344844216342e-01, -9.240072928338e-03, 4.160573569461e-02
818, 4.353954741618e-01, -4.659902576697e-03, 4.160573569461e-02
819, 4.318198051534e-01, 0.000000000000e+00, 3.718019484661e-02
820, 4.315475823092e-01, 4.153318003857e-03, 3.718019484661e-02
821, 4.307355715851e-01, 8.235571585150e-03, 3.718019484661e-02
822, 4.293976667097e-01, 1.217691225329e-02, 3.718019484661e-02
823, 4.275567596063e-01, 1.590990257670e-02, 3.718019484661e-02
824, 4.252443487059e-01, 1.937067005596e-02, 3.718019484661e-02
825, 4.225000000000e-01, 2.250000000000e-02, 3.718019484661e-02
826, 4.193706700560e-01, 2.524434870586e-02, 3.718019484661e-02
827, 4.159099025767e-01, 2.755675960631e-02, 3.718019484661e-02
828, 4.121769122533e-01, 2.939766670972e-02, 3.718019484661e-02
829, 4.082355715851e-01, 3.073557158515e-02, 3.718019484661e-02
830, 4.041533180039e-01, 3.154758230925e-02, 3.718019484661e-02
831, 4.000000000000e-01, 3.181980515339e-02, 3.718019484661e-02
832, 3.958466819961e-01, 3.154758230925e-02, 3.718019484661e-02
833, 3.917644284149e-01, 3.073557158515e-02, 3.718019484661e-02
834, 3.878230877467e-01, 2.939766670972e-02, 3.718019484661e-02
835, 3.840900974233e-01, 2.755675960631e-02, 3.718019484661e-02
836, 3.806293299440e-01, 2.524434870586e-02, 3.718019484661e-02
837, 3.775000000000e-01, 2.250000000000e-02, 3.718019484661e-02
838, 3.747556512941e-01, 1.937067005596e-02, 3.718019484661e-02
839, 3.724432403937e-01, 1.590990257670e-02, 3.718019484661e-02
840, 3.706023332903e-01, 1.217691225329e-02, 3.718019484661e-02
841, 3.692644284149e-01, 8.235571585150e-03, 3.718019484661e-02
842, 3.684524176908e-01, 4.153318003857e-03, 3.718019484661e-02
843, 3.681801948466e-01, 3.896802253060e-18, 3.718019484661e-02
844, 3.684524176908e-01, -4.153318003857e-03, 3.718019484661e-02
845, 3.692644284149e-01, -8.235571585150e-03, 3.718019484661e-02
846, 3.706023332903e-01, -1.217691225329e-02, 3.718019484661e-02
847, 3.724432403937e-01, -1.590990257670e-02, 3.718019484661e-02
848, 3.747556512941e-01, -1.937067005596e-02, 3.718019484661e-02
849, 3.775000000000e-01, -2.250000000000e-02, 3.718019484661e-02
850, 3.806293299440e-01, -2.524434870586e-02, 3.718019484661e-02
851, 3.840900974233e-01, -2.755675960631e-02, 3.718019484661e-02
852, 3.878230877467e-01, -2.939766670972e-02, 3.718019484661e-02
853, 3.917644284149e-01, -3.073557158515e-02, 3.718019484661e-02
854, 3.958466819961e-01, -3.154758230925e-02, 3.718019484661e-02
855, 4.000000000000e-01, -3.181980515339e-02, 3.718019484661e-02
856, 4.041533180039e-01, -3.154758230925e-02, 3.718019484661e-02
857, 4.082355715851e-01, -3.073557158515e-02, 3.718019484661e-02
858, 4.121769122533e-01, -2.939766670972e-02, 3.718019484661e-02
859, 4.159099025767e-01, -2.755675960631e-02, 3.718019484661e-02
860, 4.193706700560e-01, -2.524434870586e-02, 3.718019484661e-02
861, 4.225000000000e-01, -2.250000000000e-02, 3.718019484661e-02
862, 4.252443487059e-01, -1.937067005596e-02, 3.718019484661e-02
863, 4.275567596063e-01, -1.590990257670e-02, 3.718019484661e-02
864, 4.293976667097e-01, -1.217691225329e-02, 3.718019484661e-02
865, 4.307355715851e-01, -8.235571585150e-03, 3.718019484661e-02
866, 4.315475823092e-01, -4.153318003857e-03, 3.718019484661e-02
867, 4.273942643054e-01, 0.000000000000e+00, 3.329909968689e-02
868, 4.271599025767e-01, 3.575669008453e-03, 3.329909968689e-02
869, 4.264608273848e-01, 7.090157328808e-03, 3.329909968689e-02
870, 4.253090001000e-01, 1.048333109150e-02, 3.329909968689e-02
871, 4.237241288065e-01, 1.369713215270e-02, 3.329909968689e-02
872, 4.217333310915e-01, 1.667657148519e-02, 3.329909968689e-02
873, 4.193706700560e-01, 1.937067005596e-02, 3.329909968689e-02
874, 4.166765714852e-01, 2.173333109150e-02, 3.329909968689e-02
875, 4.136971321527e-01, 2.372412880646e-02, 3.329909968689e-02
876, 4.104833310915e-01, 2.530900009996e-02, 3.329909968689e-02
877, 4.070901573288e-01, 2.646082738477e-02, 3.329909968689e-02
878, 4.035756690085e-01, 2.715990257670e-02, 3.329909968689e-02
879, 4.000000000000e-01, 2.739426430539e-02, 3.329909968689e-02
880, 3.964243309915e-01, 2.715990257670e-02, 3.329909968689e-02
881, 3.929098426712e-01, 2.646082738477e-02, 3.329909968689e-02
882, 3.895166689085e-01, 2.530900009996e-02, 3.329909968689e-02
883, 3.863028678473e-01, 2.372412880646e-02, 3.329909968689e-02
884, 3.833234285148e-01, 2.173333109150e-02, 3.329909968689e-02
885, 3.806293299440e-01, 1.937067005596e-02, 3.329909968689e-02
886, 3.782666689085e-01, 1.667657148519e-02, 3.329909968689e-02
887, 3.762758711935e-01, 1.369713215270e-02, 3.329909968689e-02
888, 3.746909999000e-01, 1.048333109150e-02, 3.329909968689e-02
889, 3.735391726152e-01, 7.090157328808e-03, 3.329909968689e-02
890, 3.728400974233e-01, 3.575669008453e-03, 3.329909968689e-02
891, 3.726057356946e-01, 3.354829809660e-18, 3.329909968689e-02
892, 3.728400974233e-01, -3.575669008453e-03, 3.329909968689e-02
893, 3.735391726152e-01, -7.090157328808e-03, 3.329909968689e-02
894, 3.746909999000e-01, -1.048333109150e-02, 3.329909968689e-02
895, 3.762758711935e-01, -1.369713215270e-02, 3.329909968689e-02
896, 3.782666689085e-01, -1.667657148519e-02, 3.329909968689e-02
897, 3.806293299440e-01, -1.937067005596e-02, 3.329909968689e-02
898, 3.833234285148e-01, -2.173333109150e-02, 3.329909968689e-02
899, 3.863028678473e-01, -2.372412880646e-02, 3.329909968689e-02
900, 3.895166689085e-01, -2.530900009996e-02, 3.329909968689e-02
901, 3.929098426712e-01, -2.646082738477e-02, 3.329909968689e-02
902, 3.964243309915e-01, -2.715990257670e-02, 3.329909968689e-02
903, 4.000000000000e-01, -2.739426430539e-02, 3.329909968689e-02
904, 4.035756690085e-01, -2.715990257670e-02, 3.329909968689e-02
905, 4.070901573288e-01, -2.646082738477e-02, 3.329909968689e-02
906, 4.104833310915e-01, -2.530900009996e-02, 3.329909968689e-02
907, 4.136971321527e-01, -2.372412880646e-02, 3.329909968689e-02
908, 4.166765714852e-01, -2.173333109150e-02, 3.329909968689e-02
909, 4.193706700560e-01, -1.937067005596e-02, 3.329909968689e-02
910, 4.217333310915e-01, -1.667657148519e-02, 3.329909968689e-02
911, 4.237241288065e-01, -1.369713215270e-02, 3.329909968689e-02
912, 4.253090001000e-01, -1.048333109150e-02, 3.329909968689e-02
913, 4.264608273848e-01, -7.090157328808e-03, 3.329909968689e-02
914, 4.271599025767e-01, -3.575669008453e-03, 3.329909968689e-02
915, 4.225000000000e-01, 0.000000000000e+00, 3.002885682970e-02
916, 4.223075093809e-01, 2.936839324951e-03, 3.002885682970e-02
917, 4.217333310915e-01, 5.823428514807e-03, 3.002885682970e-02
918, 4.207872894815e-01, 8.610377228215e-03, 3.002885682970e-02
919, 4.194855715851e-01, 1.125000000000e-02, 3.002885682970e-02
920, 4.178504501566e-01, 1.369713215270e-02, 3.002885682970e-02
921, 4.159099025767e-01, 1.590990257670e-02, 3.002885682970e-02
922, 4.136971321527e-01, 1.785045015655e-02, 3.002885682970e-02
923, 4.112500000000e-01, 1.948557158515e-02, 3.002885682970e-02
924, 4.086103772282e-01, 2.078728948150e-02, 3.002885682970e-02
925, 4.058234285148e-01, 2.173333109150e-02, 3.002885682970e-02
926, 4.029368393250e-01, 2.230750938091e-02, 3.002885682970e-02
927, 4.000000000000e-01, 2.250000000000e-02, 3.002885682970e-02
928, 3.970631606750e-01, 2.230750938091e-02, 3.002885682970e-02
929, 3.941765714852e-01, 2.173333109150e-02, 3.002885682970e-02
930, 3.913896227718e-01, 2.078728948150e-02, 3.002885682970e-02
931, 3.887500000000e-01, 1.948557158515e-02, 3.002885682970e-02
932, 3.863028678473e-01, 1.785045015655e-02, 3.002885682970e-02
933, 3.840900974233e-01, 1.590990257670e-02, 3.002885682970e-02
934, 3.821495498434e-01, 1.369713215270e-02, 3.002885682970e-02
935, 3.805144284149e-01, 1.125000000000e-02, 3.002885682970e-02
936, 3.792127105185e-01, 8.610377228215e-03, 3.002885682970e-02
937, 3.782666689085e-01, 5.823428514807e-03, 3.002885682970e-02
938, 3.776924906191e-01, 2.936839324951e-03, 3.002885682970e-02
939, 3.775000000000e-01, 2.755455298082e-18, 3.002885682970e-02
940, 3.776924906191e-01, -2.936839324951e-03, 3.002885682970e-02
941, 3.782666689085e-01, -5.823428514807e-03, 3.002885682970e-02
942, 3.792127105185e-01, -8.610377228215e-03, 3.002885682970e-02
943, 3.805144284149e-01, -1.125000000000e-02, 3.002885682970e-02
944, 3.821495498434e-01, -1.369713215270e-02, 3.002885682970e-02
945, 3.840900974233e-01, -1.590990257670e-02, 3.002885682970e-02
946, 3.863028678473e-01, -1.785045015655e-02, 3.002885682970e-02
947, 3.887500000000e-01, -1.948557158515e-02, 3.002885682970e-02
948, 3.913896227718e-01, -2.078728948150e-02, 3.002885682970e-02
949, 3.941765714852e-01, -2.173333109150e-02, 3.002885682970e-02
950, 3.970631606750e-01, -2.230750938091e-02, 3.002885682970e-02
951, 4.000000000000e-01, -2.250000000000e-02, 3.002885682970e-02
952, 4.029368393250e-01, -2.230750938091e-02, 3.002885682970e-02
953, 4.058234285148e-01, -2.173333109150e-02, 3.002885682970e-02
954, 4.086103772282e-01, -2.078728948150e-02, 3.002885682970e-02
955, 4.112500000000e-01, -1.948557158515e-02, 3.002885682970e-02
956, 4.136971321527e-01, -1.785045015655e-02, 3.002885682970e-02
957, 4.159099025767e-01, -1.590990257670e-02, 3.002885682970e-02
958, 4.178504501566e-01, -1.369713215270e-02, 3.002885682970e-02
959, 4.194855715851e-01, -1.125000000000e-02, 3.002885682970e-02
960, 4.207872894815e-01, -8.610377228215e-03, 3.002885682970e-02
961, 4.217333310915e-01, -5.823428514807e-03, 3.002885682970e-02
962, 4.223075093809e-01, -2.936839324951e-03, 3.002885682970e-02
963, 4.172207544564e-01, 0.000000000000e+00, 2.742542103699e-02
964, 4.170734285148e-01, 2.247759506354e-03, 2.742542103699e-02
965, 4.166339714776e-01, 4.457059224358e-03, 2.742542103699e-02
966, 4.159099025767e-01, 6.590097423303e-03, 2.742542103699e-02
967, 4.149136108316e-01, 8.610377228215e-03, 2.742542103699e-02
968, 4.136621430703e-01, 1.048333109150e-02, 2.742542103699e-02
969, 4.121769122533e-01, 1.217691225329e-02, 2.742542103699e-02
970, 4.104833310915e-01, 1.366214307034e-02, 2.742542103699e-02
971, 4.086103772282e-01, 1.491361083160e-02, 2.742542103699e-02
972, 4.065900974233e-01, 1.590990257670e-02, 2.742542103699e-02
973, 4.044570592244e-01, 1.663397147765e-02, 2.742542103699e-02
974, 4.022477595064e-01, 1.707342851481e-02, 2.742542103699e-02
975, 4.000000000000e-01, 1.722075445643e-02, 2.742542103699e-02
976, 3.977522404936e-01, 1.707342851481e-02, 2.742542103699e-02
977, 3.955429407756e-01, 1.663397147765e-02, 2.742542103699e-02
978, 3.934099025767e-01, 1.590990257670e-02, 2.742542103699e-02
979, 3.913896227718e-01, 1.491361083160e-02, 2.742542103699e-02
980, 3.895166689085e-01, 1.366214307034e-02, 2.742542103699e-02
981, 3.878230877467e-01, 1.217691225329e-02, 2.742542103699e-02
982, 3.863378569297e-01, 1.048333109150e-02, 2.742542103699e-02
983, 3.850863891684e-01, 8.610377228215e-03, 2.742542103699e-02
984, 3.840900974233e-01, 6.590097423303e-03, 2.742542103699e-02
985, 3.833660285224e-01, 4.457059224358e-03, 2.742542103699e-02
986, 3.829265714852e-01, 2.247759506354e-03, 2.742542103699e-02
987, 3.827792455436e-01, 2.108934182397e-18, 2.742542103699e-02
988, 3.829265714852e-01, -2.247759506354e-03, 2.742542103699e-02
989, 3.833660285224e-01, -4.457059224358e-03, 2.742542103699e-02
990, 3.840900974233e-01, -6.590097423303e-03, 2.742542103699e-02
991, 3.850863891684e-01, -8.610377228215e-03, 2.742542103699e-02
992, 3.863378569297e-01, -1.048333109150e-02, 2.742542103699e-02
993, 3.878230877467e-01, -1.217691225329e-02, 2.742542103699e-02
994, 3.895166689085e-01, -1.366214307034e-02, 2.742542103699e-02
995, 3.913896227718e-01, -1.491361083160e-02, 2.742542103699e-02
996, 3.934099025767e-01, -1.590990257670e-02, 2.742542103699e-02
997, 3.955429407756e-01, -1.663397147765e-02, 2.742542103699e-02
998, 3.977522404936e-01, -1.707342851481e-02, 2.742542103699e-02
999, 4.000000000000e-01, -1.722075445643e-02, 2.742542103699e-02
1000, 4.022477595064e-01, -1.707342851481e-02, 2.742542103699e-02
1001, 4.044570592244e-01, -1.663397147765e-02, 2.742542103699e-02
1002, 4.065900974233e-01, -1.590990257670e-02, 2.742542103699e-02
1003, 4.086103772282e-01, -1.491361083160e-02, 2.742542103699e-02
1004, 4.104833310915e-01, -1.366214307034e-02, 2.742542103699e-02
1005, 4.121769122533e-01, -1.217691225329e-02, 2.742542103699e-02
1006, 4.136621430703e-01, -1.048333109150e-02, 2.742542103699e-02
1007, 4.149136108316e-01, -8.610377228215e-03, 2.742542103699e-02
1008, 4.159099025767e-01, -6.590097423303e-03, 2.742542103699e-02
1009, 4.166339714776e-01, -4.457059224358e-03, 2.742542103699e-02
1010, 4.170734285148e-01, -2.247759506354e-03, 2.742542103699e-02
1011, 4.116468570296e-01, 0.000000000000e+00, 2.553333781699e-02
1012, 4.115472165532e-01, 1.520219899407e-03, 2.553333781699e-02
1013, 4.112500000000e-01, 3.014428414850e-03, 2.553333781699e-02
1014, 4.107602928277e-01, 4.457059224358e-03, 2.553333781699e-02
1015, 4.100864740619e-01, 5.823428514807e-03, 2.553333781699e-02
1016, 4.092400729283e-01, 7.090157328808e-03, 2.553333781699e-02
1017, 4.082355715851e-01, 8.235571585150e-03, 2.553333781699e-02
1018, 4.070901573288e-01, 9.240072928338e-03, 2.553333781699e-02
1019, 4.058234285148e-01, 1.008647406189e-02, 2.553333781699e-02
1020, 4.044570592244e-01, 1.076029282775e-02, 2.553333781699e-02
1021, 4.030144284149e-01, 1.125000000000e-02, 2.553333781699e-02
1022, 4.015202198994e-01, 1.154721655317e-02, 2.553333781699e-02
1023, 4.000000000000e-01, 1.164685702961e-02, 2.553333781699e-02
1024, 3.984797801006e-01, 1.154721655317e-02, 2.553333781699e-02
1025, 3.969855715851e-01, 1.125000000000e-02, 2.553333781699e-02
1026, 3.955429407756e-01, 1.076029282775e-02, 2.553333781699e-02
1027, 3.941765714852e-01, 1.008647406189e-02, 2.553333781699e-02
1028, 3.929098426712e-01, 9.240072928338e-03, 2.553333781699e-02
1029, 3.917644284149e-01, 8.235571585150e-03, 2.553333781699e-02
1030, 3.907599270717e-01, 7.090157328808e-03, 2.553333781699e-02
1031, 3.899135259381e-01, 5.823428514807e-03, 2.553333781699e-02
1032, 3.892397071723e-01, 4.457059224358e-03, 2.553333781699e-02
1033, 3.887500000000e-01, 3.014428414850e-03, 2.553333781699e-02
1034, 3.884527834468e-01, 1.520219899407e-03, 2.553333781699e-02
1035, 3.883531429704e-01, 1.426328618144e-18, 2.553333781699e-02
1036, 3.884527834468e-01, -1.520219899407e-03, 2.553333781699e-02
1037, 3.887500000000e-01, -3.014428414850e-03, 2.553333781699e-02
1038, 3.892397071723e-01, -4.457059224358e-03, 2.553333781699e-02
1039, 3.899135259381e-01, -5.823428514807e-03, 2.553333781699e-02
1040, 3.907599270717e-01, -7.090157328808e-03, 2.553333781699e-02
1041, 3.917644284149e-01, -8.235571585150e-03, 2.553333781699e-02
1042, 3.929098426712e-01, -9.240072928338e-03, 2.553333781699e-02
1043, 3.941765714852e-01, -1.008647406189e-02, 2.553333781699e-02
1044, 3.955429407756e-01, -1.076029282775e-02, 2.553333781699e-02
1045, 3.969855715851e-01, -1.125000000000e-02, 2.553333781699e-02
1046, 3.984797801006e-01, -1.154721655317e-02, 2.553333781699e-02
1047, 4.000000000000e-01, -1.164685702961e-02, 2.553333781699e-02
1048, 4.015202198994e-01, -1.154721655317e-02, 2.553333781699e-02
1049, 4.030144284149e-01, -1.125000000000e-02, 2.553333781699e-02
1050, 4.044570592244e-01, -1.076029282775e-02, 2.553333781699e-02
1051, 4.058234285148e-01, -1.008647406189e-02, 2.553333781699e-02
1052, 4.070901573288e-01, -9.240072928338e-03, 2.553333781699e-02
1053, 4.082355715851e-01, -8.235571585150e-03, 2.553333781699e-02
1054, 4.092400729283e-01, -7.090157328808e-03, 2.553333781699e-02
1055, 4.100864740619e-01, -5.823428514807e-03, 2.553333781699e-02
1056, 4.107602928277e-01, -4.457059224358e-03, 2.553333781699e-02
1057, 4.112500000000e-01, -3.014428414850e-03, 2.553333781699e-02
1058, 4.115472165532e-01, -1.520219899407e-03, 2.553333781699e-02
1059, 4.058736786499e-01, 0.000000000000e+00, 2.438498123818e-02
1060, 4.058234285148e-01, 7.666689084960e-04, 2.438498123818e-02
1061, 4.056735379033e-01, 1.520219899407e-03, 2.438498123818e-02
1062, 4.054265714852e-01, 2.247759506354e-03, 2.438498123818e-02
1063, 4.050867549245e-01, 2.936839324951e-03, 2.438498123818e-02
1064, 4.046599025767e-01, 3.575669008453e-03, 2.438498123818e-02
1065, 4.041533180039e-01, 4.153318003857e-03, 2.438498123818e-02
1066, 4.035756690085e-01, 4.659902576697e-03, 2.438498123818e-02
1067, 4.029368393250e-01, 5.086754924482e-03, 2.438498123818e-02
1068, 4.022477595064e-01, 5.426571485193e-03, 2.438498123818e-02
1069, 4.015202198994e-01, 5.673537903263e-03, 2.438498123818e-02
1070, 4.007666689085e-01, 5.823428514807e-03, 2.438498123818e-02
1071, 4.000000000000e-01, 5.873678649902e-03, 2.438498123818e-02
1072, 3.992333310915e-01, 5.823428514807e-03, 2.438498123818e-02
1073, 3.984797801006e-01, 5.673537903263e-03, 2.438498123818e-02
1074, 3.977522404936e-01, 5.426571485193e-03, 2.438498123818e-02
1075, 3.970631606750e-01, 5.086754924482e-03, 2.438498123818e-02
1076, 3.964243309915e-01, 4.659902576697e-03, 2.438498123818e-02
1077, 3.958466819961e-01, 4.153318003857e-03, 2.438498123818e-02
1078, 3.953400974233e-01, 3.575669008453e-03, 2.438498123818e-02
1079, 3.949132450755e-01, 2.936839324951e-03, 2.438498123818e-02
1080, 3.945734285148e-01, 2.247759506354e-03, 2.438498123818e-02
1081, 3.943264620967e-01, 1.520219899407e-03, 2.438498123818e-02
1082, 3.941765714852e-01, 7.666689084960e-04, 2.438498123818e-02
1083, 3.941263213501e-01, 7.193181757823e-19, 2.438498123818e-02
1084, 3.941765714852e-01, -7.666689084960e-04, 2.438498123818e-02
1085, 3.943264620967e-01, -1.520219899407e-03, 2.438498123818e-02
1086, 3.945734285148e-01, -2.247759506354e-03, 2.438498123818e-02
1087, 3.949132450755e-01, -2.936839324951e-03, 2.438498123818e-02
1088, 3.953400974233e-01, -3.575669008453e-03, 2.438498123818e-02
1089, 3.958466819961e-01, -4.153318003857e-03, 2.438498123818e-02
1090, 3.964243309915e-01, -4.659902576697e-03, 2.438498123818e-02
1091, 3.970631606750e-01, -5.086754924482e-03, 2.438498123818e-02
1092, 3.977522404936e-01, -5.426571485193e-03, 2.438498123818e-02
1093, 3.984797801006e-01, -5.673537903263e-03, 2.438498123818e-02
1094, 3.992333310915e-01, -5.823428514807e-03, 2.438498123818e-02
1095, 4.000000000000e-01, -5.873678649902e-03, 2.438498123818e-02
1096, 4.007666689085e-01, -5.823428514807e-03, 2.438498123818e-02
1097, 4.015202198994e-01, -5.673537903263e-03, 2.438498123818e-02
1098, 4.022477595064e-01, -5.426571485193e-03, 2.438498123818e-02
1099, 4.029368393250e-01, -5.086754924482e-03, 2.438498123818e-02
1100, 4.035756690085e-01, -4.659902576697e-03, 2.438498123818e-02
1101, 4.041533180039e-01, -4.153318003857e-03, 2.438498123818e-02
1102, 4.046599025767e-01, -3.575669008453e-03, 2.438498123818e-02
1103, 4.050867549245e-01, -2.936839324951e-03, 2.438498123818e-02
1104, 4.054265714852e-01, -2.247759506354e-03, 2.438498123818e-02
1105, 4.056735379033e-01, -1.520219899407e-03, 2.438498123818e-02
1106, 4.058234285148e-01, -7.666689084960e-04, 2.438498123818e-02
1107, 4.000000000000e-01, 0.000000000000e+00, 2.400000000000e-02
*Element, type=C3D4, elset=SPHERE_EALL
1, 1, 2, 3, 4
2, 1, 2, 4, 5
3, 1, 2, 5, 6
4, 1, 2, 6, 7
5, 1, 2, 7, 8
6, 1, 2, 8, 9
7, 1, 2, 9, 10
8, 1, 2, 10, 11
9, 1, 2, 11, 12
10, 1, 2, 12, 13
11, 1, 2, 13, 14
12, 1, 2, 14, 15
13, 1, 2, 15, 16
14, 1, 2, 16, 17
15, 1, 2, 17, 18
16, 1, 2, 18, 19
17, 1, 2, 19, 20
18, 1, 2, 20, 21
19, 1, 2, 21, 22
20, 1, 2, 22, 23
21, 1, 2, 23, 24
22, 1, 2, 24, 25
23, 1, 2, 25, 26
24, 1, 2, 26, 27
25, 1, 2, 27, 28
26, 1, 2, 28, 29
27, 1, 2, 29, 30
28, 1, 2, 30, 31
29, 1, 2, 31, 32
30, 1, 2, 32, 33
31, 1, 2, 33, 34
32, 1, 2, 34, 35
33, 1, 2, 35, 36
34, 1, 2, 36, 37
35, 1, 2, 37, 38
36, 1, 2, 38, 39
37, 1, 2, 39, 40
38, 1, 2, 40, 41
39, 1, 2, 41, 42
40, 1, 2, 42, 43
41, 1, 2, 43, 44
42, 1, 2, 44, 45
43, 1, 2, 45, 46
44, 1, 2, 46, 47
45, 1, 2, 47, 48
46, 1, 2, 48, 49
47, 1, 2, 49, 50
48, 1, 2, 50, 3
49, 1, 3, 52, 4
50, 1, 3, 51, 52
51, 1, 4, 53, 5
52, 1, 4, 52, 53
53, 1, 5, 54, 6
54, 1, 5, 53, 54
55, 1, 6, 55, 7
56, 1, 6, 54, 55
57, 1, 7, 56, 8
58, 1, 7, 55, 56
59, 1, 8, 57, 9
60, 1, 8, 56, 57
61, 1, 9, 58, 10
62, 1, 9, 57, 58
63, 1, 10, 59, 11
64, 1, 10, 58, 59
65, 1, 11, 60, 12
66, 1, 11, 59, 60
67, 1, 12, 61, 13
68, 1, 12, 60, 61
69, 1, 13, 62, 14
70, 1, 13, 61, 62
71, 1, 14, 63, 15
72, 1, 14, 62, 63
73, 1, 15, 64, 16
74, 1, 15, 63, 64
75, 1, 16, 65, 17
76, 1, 16, 64, 65
77, 1, 17, 66, 18
78, 1, 17, 65, 66
79, 1, 18, 67, 19
80, 1, 18, 66, 67
81, 1, 19, 68, 20
82, 1, 19, 67, 68
83, 1, 20, 69, 21
84, 1, 20, 68, 69
85, 1, 21, 70, 22
86, 1, 21, 69, 70
87, 1, 22, 71, 23
88, 1, 22, 70, 71
89, 1, 23, 72, 24
90, 1, 23, 71, 72
91, 1, 24, 73, 25
92, 1, 24, 72, 73
93, 1, 25, 74, 26
94, 1, 25, 73, 74
95, 1, 26, 75, 27
96, 1, 26, 74, 75
97, 1, 27, 76, 28
98, 1, 27, 75, 76
99, 1, 28, 77, 29
100, 1, 28, 76, 77
101, 1, 29, 78, 30
102, 1, 29, 77, 78
103, 1, 30, 79, 31
104, 1, 30, 78, 79
105, 1, 31, 80, 32
106, 1, 31, 79, 80
107, 1, 32, 81, 33
108, 1, 32, 80, 81
109, 1, 33, 82, 34
110, 1, 33, 81, 82
111, 1, 34, 83, 35
112, 1, 34, 82, 83
113, 1, 35, 84, 36
114, 1, 35, 83, 84
115, 1, 36, 85, 37
116, 1, 36, 84, 85
117, 1, 37, 86, 38
118, 1, 37, 85, 86
119, 1, 38, 87, 39
120, 1, 38, 86, 87
121, 1, 39, 88, 40
122, 1, 39, 87, 88
123, 1, 40, 89, 41
124, 1, 40, 88, 89
125, 1, 41, 90, 42
126, 1, 41, 89, 90
127, 1, 42, 91, 43
128, 1, 42, 90, 91
129, 1, 43, 92, 44
130, 1, 43, 91, 92
131, 1, 44, 93, 45
132, 1, 44, 92, 93
133, 1, 45, 94, 46
134, 1, 45, 93, 94
135, 1, 46, 95, 47
136, 1, 46, 94, 95
137, 1, 47, 96, 48
138, 1, 47, 95, 96
139, 1, 48, 97, 49
140, 1, 48, 96, 97
141, 1, 49, 98, 50
142, 1, 49, 97, 98
143, 1, 50, 51, 3
144, 1, 50, 98, 51
145, 1, 51, 100, 52
146, 1, 51, 99, 100
147, 1, 52, 101, 53
148, 1, 52, 100, 101
149, 1, 53, 102, 54
150, 1, 53, 101, 102
151, 1, 54, 103, 55
152, 1, 54, 102, 103
153, 1, 55, 104, 56
154, 1, 55, 103, 104
155, 1, 56, 105, 57
156, 1, 56, 104, 105
157, 1, 57, 106, 58
158, 1, 57, 105, 106
159, 1, 58, 107, 59
160, 1, 58, 106, 107
161, 1, 59, 108, 60
162, 1, 59, 107, 108
163, 1, 60, 109, 61
164, 1, 60, 108, 109
165, 1, 61, 110, 62
166, 1, 61, 109, 110
167, 1, 62, 111, 63
168, 1, 62, 110, 111
169, 1, 63, 112, 64
170, 1, 63, 111, 112
171, 1, 64, 113, 65
172, 1, 64, 112, 113
173, 1, 65, 114, 66
174, 1, 65, 113, 114
175, 1, 66, 115, 67
176, 1, 66, 114, 115
177, 1, 67, 116, 68
178, 1, 67, 115, 116
179, 1, 68, 117, 69
180, 1, 68, 116, 117
181, 1, 69, 118, 70
182, 1, 69, 117, 118
183, 1, 70, 119, 71
184, 1, 70, 118, 119
185, 1, 71, 120, 72
186, 1, 71, 119, 120
187, 1, 72, 121, 73
188, 1, 72, 120, 121
189, 1, 73, 122, 74
190, 1, 73, 121, 122
191, 1, 74, 123, 75
192, 1, 74, 122, 123
193, 1, 75, 124, 76
194, 1, 75, 123, 124
195, 1, 76, 125, 77
196, 1, 76, 124, 125
197, 1, 77, 126, 78
198, 1, 77, 125, 126
199, 1, 78, 127, 79
200, 1, 78, 126, 127
201, 1, 79, 128, 80
202, 1, 79, 127, 128
203, 1, 80, 129, 81
204, 1, 80, 128, 129
205, 1, 81, 130, 82
206, 1, 81, 129, 130
207, 1, 82, 131, 83
208, 1, 82, 130, 131
209, 1, 83, 132, 84
210, 1, 83, 131, 132
211, 1, 84, 133, 85
212, 1, 84, 132, 133
213, 1, 85, 134, 86
214, 1, 85, 133, 134
215, 1, 86, 135, 87
216, 1, 86, 134, 135
217, 1, 87, 136, 88
218, 1, 87, 135, 136
219, 1, 88, 137, 89
220, 1, 88, 136, 137
221, 1, 89, 138, 90
222, 1, 89, 137, 138
223, 1, 90, 139, 91
224, 1, 90, 138, 139
225, 1, 91, 140, 92
226, 1, 91, 139, 140
227, 1, 92, 141, 93
228, 1, 92, 140, 141
229, 1, 93, 142, 94
230, 1, 93, 141, 142
231, 1, 94, 143, 95
232, 1, 94, 142, 143
233, 1, 95, 144, 96
234, 1, 95, 143, 144
235, 1, 96, 145, 97
236, 1, 96, 144, 145
237, 1, 97, 146, 98
238, 1, 97, 145, 146
239, 1, 98, 99, 51
240, 1, 98, 146, 99
241, 1, 99, 148, 100
242, 1, 99, 147, 148
243, 1, 100, 149, 101
244, 1, 100, 148, 149
245, 1, 101, 150, 102
246, 1, 101, 149, 150
247, 1, 102, 151, 103
248, 1, 102, 150, 151
249, 1, 103, 152, 104
250, 1, 103, 151, 152
251, 1, 104, 153, 105
252, 1, 104, 152, 153
253, 1, 105, 154, 106
254, 1, 105, 153, 154
255, 1, 106, 155, 107
256, 1, 106, 154, 155
257, 1, 107, 156, 108
258, 1, 107, 155, 156
259, 1, 108, 157, 109
260, 1, 108, 156, 157
261, 1, 109, 158, 110
262, 1, 109, 157, 158
263, 1, 110, 159, 111
264, 1, 110, 158, 159
265, 1, 111, 160, 112
266, 1, 111, 159, 160
267, 1, 112, 161, 113
268, 1, 112, 160, 161
269, 1, 113, 162, 114
270, 1, 113, 161, 162
271, 1, 114, 163, 115
272, 1, 114, 162, 163
273, 1, 115, 164, 116
274, 1, 115, 163, 164
275, 1, 116, 165, 117
276, 1, 116, 164, 165
277, 1, 117, 166, 118
278, 1, 117, 165, 166
279, 1, 118, 167, 119
280, 1, 118, 166, 167
281, 1, 119, 168, 120
282, 1, 119, 167, 168
283, 1, 120, 169, 121
284, 1, 120, 168, 169
285, 1, 121, 170, 122
286, 1, 121, 169, 170
287, 1, 122, 171, 123
288, 1, 122, 170, 171
289, 1, 123, 172, 124
290, 1, 123, 171, 172
291, 1, 124, 173, 125
292, 1, 124, 172, 173
293, 1, 125, 174, 126
294, 1, 125, 173, 174
295, 1, 126, 175, 127
296, 1, 126, 174, 175
297, 1, 127, 176, 128
298, 1, 127, 175, 176
299, 1, 128, 177, 129
300, 1, 128, 176, 177
301, 1, 129, 178, 130
302, 1, 129, 177, 178
303, 1, 130, 179, 131
304, 1, 130, 178, 179
305, 1, 131, 180, 132
306, 1, 131, 179, 180
307, 1, 132, 181, 133
308, 1, 132, 180, 181
309, 1, 133, 182, 134
310, 1, 133, 181, 182
311, 1, 134, 183, 135
312, 1, 134, 182, 183
313, 1, 135, 184, 136
314, 1, 135, 183, 184
315, 1, 136, 185, 137
316, 1, 136, 184, 185
317, 1, 137, 186, 138
318, 1, 137, 185, 186
319, 1, 138, 187, 139
320, 1, 138, 186, 187
321, 1, 139, 188, 140
322, 1, 139, 187, 188
323, 1, 140, 189, 141
324, 1, 140, 188, 189
325, 1, 141, 190, 142
326, 1, 141, 189, 190
327, 1, 142, 191, 143
328, 1, 142, 190, 191
329, 1, 143, 192, 144
330, 1, 143, 191, 192
331, 1, 144, 193, 145
332, 1, 144, 192, 193
333, 1, 145, 194, 146
334, 1, 145, 193, 194
335, 1, 146, 147, 99
336, 1, 146, 194, 147
337, 1, 147, 196, 148
338, 1, 147, 195, 196
339, 1, 148, 197, 149
340, 1, 148, 196, 197
341, 1, 149, 198, 150
342, 1, 149, 197, 198
343, 1, 150, 199, 151
344, 1, 150, 198, 199
345, 1, 151, 200, 152
346, 1, 151, 199, 200
347, 1, 152, 201, 153
348, 1, 152, 200, 201
349, 1, 153, 202, 154
350, 1, 153, 201, 202
351, 1, 154, 203, 155
352, 1, 154, 202, 203
353, 1, 155, 204, 156
354, 1, 155, 203, 204
355, 1, 156, 205, 157
356, 1, 156, 204, 205
357, 1, 157, 206, 158
358, 1, 157, 205, 206
359, 1, 158, 207, 159
360, 1, 158, 206, 207
361, 1, 159, 208, 160
362, 1, 159, 207, 208
363, 1, 160, 209, 161
364, 1, 160, 208, 209
365, 1, 161, 210, 162
366, 1, 161, 209, 210
367, 1, 162, 211, 163
368, 1, 162, 210, 211
369, 1, 163, 212, 164
370, 1, 163, 211, 212
371, 1, 164, 213, 165
372, 1, 164, 212, 213
373, 1, 165, 214, 166
374, 1, 165, 213, 214
375, 1, 166, 215, 167
376, 1, 166, 214, 215
377, 1, 167, 216, 168
378, 1, 167, 215, 216
379, 1, 168, 217, 169
380, 1, 168, 216, 217
381, 1, 169, 218, 170
382, 1, 169, 217, 218
383, 1, 170, 219, 171
384, 1, 170, 218, 219
385, 1, 171, 220, 172
386, 1, 171, 219, 220
387, 1, 172, 221, 173
388, 1, 172, 220, 221
389, 1, 173, 222, 174
390, 1, 173, 221, 222
391, 1, 174, 223, 175
392, 1, 174, 222, 223
393, 1, 175, 224, 176
394, 1, 175, 223, 224
395, 1, 176, 225, 177
396, 1, 176, 224, 225
397, 1, 177, 226, 178
398, 1, 177, 225, 226
399, 1, 178, 227, 179
400, 1, 178, 226, 227
401, 1, 179, 228, 180
402, 1, 179, 227, 228
403, 1, 180, 229, 181
404, 1, 180, 228, 229
405, 1, 181, 230, 182
406, 1, 181, 229, 230
407, 1, 182, 231, 183
408, 1, 182, 230, 231
409, 1, 183, 232, 184
410, 1, 183, 231, 232
411, 1, 184, 233, 185
412, 1, 184, 232, 233
413, 1, 185, 234, 186
414, 1, 185, 233, 234
415, 1, 186, 235, 187
416, 1, 186, 234, 235
417, 1, 187, 236, 188
418, 1, 187, 235, 236
419, 1, 188, 237, 189
420, 1, 188, 236, 237
421, 1, 189, 238, 190
422, 1, 189, 237, 238
423, 1, 190, 239, 191
424, 1, 190, 238, 239
425, 1, 191, 240, 192
426, 1, 191, 239, 240
427, 1, 192, 241, 193
428, 1, 192, 240, 241
429, 1, 193, 242, 194
430, 1, 193, 241, 242
431, 1, 194, 195, 147
432, 1, 194, 242, 195
433, 1, 195, 244, 196
434, 1, 195, 243, 244
435, 1, 196, 245, 197
436, 1, 196, 244, 245
437, 1, 197, 246, 198
438, 1, 197, 245, 246
439, 1, 198, 247, 199
440, 1, 198, 246, 247
441, 1, 199, 248, 200
442, 1, 199, 247, 248
443, 1, 200, 249, 201
444, 1, 200, 248, 249
445, 1, 201, 250, 202
446, 1, 201, 249, 250
447, 1, 202, 251, 203
448, 1, 202, 250, 251
449, 1, 203, 252, 204
450, 1, 203, 251, 252
451, 1, 204, 253, 205
452, 1, 204, 252, 253
453, 1, 205, 254, 206
454, 1, 205, 253, 254
455, 1, 206, 255, 207
456, 1, 206, 254, 255
457, 1, 207, 256, 208
458, 1, 207, 255, 256
459, 1, 208, 257, 209
460, 1, 208, 256, 257
461, 1, 209, 258, 210
462, 1, 209, 257, 258
463, 1, 210, 259, 211
464, 1, 210, 258, 259
465, 1, 211, 260, 212
466, 1, 211, 259, 260
467, 1, 212, 261, 213
468, 1, 212, 260, 261
469, 1, 213, 262, 214
470, 1, 213, 261, 262
471, 1, 214, 263, 215
472, 1, 214, 262, 263
473, 1, 215, 264, 216
474, 1, 215, 263, 264
475, 1, 216, 265, 217
476, 1, 216, 264, 265
477, 1, 217, 266, 218
478, 1, 217, 265, 266
479, 1, 218, 267, 219
480, 1, 218, 266, 267
481, 1, 219, 268, 220
482, 1, 219, 267, 268
483, 1, 220, 269, 221
484, 1, 220, 268, 269
485, 1, 221, 270, 222
486, 1, 221, 269, 270
487, 1, 222, 271, 223
488, 1, 222, 270, 271
489, 1, 223, 272, 224
490, 1, 223, 271, 272
491, 1, 224, 273, 225
492, 1, 224, 272, 273
493, 1, 225, 274, 226
494, 1, 225, 273, 274
495, 1, 226, 275, 227
496, 1, 226, 274, 275
497, 1, 227, 276, 228
498, 1, 227, 275, 276
499, 1, 228, 277, 229
500, 1, 228, 276, 277
501, 1, 229, 278, 230
502, 1, 229, 277, 278
503, 1, 230, 279, 231
504, 1, 230, 278, 279
505, 1, 231, 280, 232
506, 1, 231, 279, 280
507, 1, 232, 281, 233
508, 1, 232, 280, 281
509, 1, 233, 282, 234
510, 1, 233, 281, 282
511, 1, 234, 283, 235
512, 1, 234, 282, 283
513, 1, 235, 284, 236
514, 1, 235, 283, 284
515, 1, 236, 285, 237
516, 1, 236, 284, 285
517, 1, 237, 286, 238
518, 1, 237, 285, 286
519, 1, 238, 287, 239
520, 1, 238, 286, 287
521, 1, 239, 288, 240
522, 1, 239, 287, 288
523, 1, 240, 289, 241
524, 1, 240, 288, 289
525, 1, 241, 290, 242
526, 1, 241, 289, 290
527, 1, 242, 243, 195
528, 1, 242, 290, 243
529, 1, 243, 292, 244
530, 1, 243, 291, 292
531, 1, 244, 293, 245
532, 1, 244, 292, 293
533, 1, 245, 294, 246
534, 1, 245, 293, 294
535, 1, 246, 295, 247
536, 1, 246, 294, 295
537, 1, 247, 296, 248
538, 1, 247, 295, 296
539, 1, 248, 297, 249
540, 1, 248, 296, 297
541, 1, 249, 298, 250
542, 1, 249, 297, 298
543, 1, 250, 299, 251
544, 1, 250, 298, 299
545, 1, 251, 300, 252
546, 1, 251, 299, 300
547, 1, 252, 301, 253
548, 1, 252, 300, 301
549, 1, 253, 302, 254
550, 1, 253, 301, 302
551, 1, 254, 303, 255
552, 1, 254, 302, 303
553, 1, 255, 304, 256
554, 1, 255, 303, 304
555, 1, 256, 305, 257
556, 1, 256, 304, 305
557, 1, 257, 306, 258
558, 1, 257, 305, 306
559, 1, 258, 307, 259
560, 1, 258, 306, 307
561, 1, 259, 308, 260
562, 1, 259, 307, 308
563, 1, 260, 309, 261
564, 1, 260, 308, 309
565, 1, 261, 310, 262
566, 1, 261, 309, 310
567, 1, 262, 311, 263
568, 1, 262, 310, 311
569, 1, 263, 312, 264
570, 1, 263, 311, 312
571, 1, 264, 313, 265
572, 1, 264, 312, 313
573, 1, 265, 314, 266
574, 1, 265, 313, 314
575, 1, 266, 315, 267
576, 1, 266, 314, 315
577, 1, 267, 316, 268
578, 1, 267, 315, 316
579, 1, 268, 317, 269
580, 1, 268, 316, 317
581, 1, 269, 318, 270
582, 1, 269, 317, 318
583, 1, 270, 319, 271
584, 1, 270, 318, 319
585, 1, 271, 320, 272
586, 1, 271, 319, 320
587, 1, 272, 321, 273
588, 1, 272, 320, 321
589, 1, 273, 322, 274
590, 1, 273, 321, 322
591, 1, 274, 323, 275
592, 1, 274, 322, 323
593, 1, 275, 324, 276
594, 1, 275, 323, 324
595, 1, 276, 325, 277
596, 1, 276, 324, 325
597, 1, 277, 326, 278
598, 1, 277, 325, 326
599, 1, 278, 327, 279
600, 1, 278, 326, 327
601, 1, 279, 328, 280
602, 1, 279, 327, 328
603, 1, 280, 329, 281
604, 1, 280, 328, 329
605, 1, 281, 330, 282
606, 1, 281, 329, 330
607, 1, 282, 331, 283
608, 1, 282, 330, 331
609, 1, 283, 332, 284
610, 1, 283, 331, 332
611, 1, 284, 333, 285
612, 1, 284, 332, 333
613, 1, 285, 334, 286
614, 1, 285, 333, 334
615, 1, 286, 335, 287
616, 1, 286, 334, 335
617, 1, 287, 336, 288
618, 1, 287, 335, 336
619, 1, 288, 337, 289
620, 1, 288, 336, 337
621, 1, 289, 338, 290
622, 1, 289, 337, 338
623, 1, 290, 291, 243
624, 1, 290, 338, 291
625, 1, 291, 340, 292
626, 1, 291, 339, 340
627, 1, 292, 341, 293
628, 1, 292, 340, 341
629, 1, 293, 342, 294
630, 1, 293, 341, 342
631, 1, 294, 343, 295
632, 1, 294, 342, 343
633, 1, 295, 344, 296
634, 1, 295, 343, 344
635, 1, 296, 345, 297
636, 1, 296, 344, 345
637, 1, 297, 346, 298
638, 1, 297, 345, 346
639, 1, 298, 347, 299
640, 1, 298, 346, 347
641, 1, 299, 348, 300
642, 1, 299, 347, 348
643, 1, 300, 349, 301
644, 1, 300, 348, 349
645, 1, 301, 350, 302
646, 1, 301, 349, 350
647, 1, 302, 351, 303
648, 1, 302, 350, 351
649, 1, 303, 352, 304
650, 1, 303, 351, 352
651, 1, 304, 353, 305
652, 1, 304, 352, 353
653, 1, 305, 354, 306
654, 1, 305, 353, 354
655, 1, 306, 355, 307
656, 1, 306, 354, 355
657, 1, 307, 356, 308
658, 1, 307, 355, 356
659, 1, 308, 357, 309
660, 1, 308, 356, 357
661, 1, 309, 358, 310
662, 1, 309, 357, 358
663, 1, 310, 359, 311
664, 1, 310, 358, 359
665, 1, 311, 360, 312
666, 1, 311, 359, 360
667, 1, 312, 361, 313
668, 1, 312, 360, 361
669, 1, 313, 362, 314
670, 1, 313, 361, 362
671, 1, 314, 363, 315
672, 1, 314, 362, 363
673, 1, 315, 364, 316
674, 1, 315, 363, 364
675, 1, 316, 365, 317
676, 1, 316, 364, 365
677, 1, 317, 366, 318
678, 1, 317, 365, 366
679, 1, 318, 367, 319
680, 1, 318, 366, 367
681, 1, 319, 368, 320
682, 1, 319, 367, 368
683, 1, 320, 369, 321
684, 1, 320, 368, 369
685, 1, 321, 370, 322
686, 1, 321, 369, 370
687, 1, 322, 371, 323
688, 1, 322, 370, 371
689, 1, 323, 372, 324
690, 1, 323, 371, 372
691, 1, 324, 373, 325
692, 1, 324, 372, 373
693, 1, 325, 374, 326
694, 1, 325, 373, 374
695, 1, 326, 375, 327
696, 1, 326, 374, 375
697, 1, 327, 376, 328
698, 1, 327, 375, 376
699, 1, 328, 377, 329
700, 1, 328, 376, 377
701, 1, 329, 378, 330
702, 1, 329, 377, 378
703, 1, 330, 379, 331
704, 1, 330, 378, 379
705, 1, 331, 380, 332
706, 1, 331, 379, 380
707, 1, 332, 381, 333
708, 1, 332, 380, 381
709, 1, 333, 382, 334
710, 1, 333, 381, 382
711, 1, 334, 383, 335
712, 1, 334, 382, 383
713, 1, 335, 384, 336
714, 1, 335, 383, 384
715, 1, 336, 385, 337
716, 1, 336, 384, 385
717, 1, 337, 386, 338
718, 1, 337, 385, 386
719, 1, 338, 339, 291
720, 1, 338, 386, 339
721, 1, 339, 388, 340
722, 1, 339, 387, 388
723, 1, 340, 389, 341
724, 1, 340, 388, 389
725, 1, 341, 390, 342
726, 1, 341, 389, 390
727, 1, 342, 391, 343
728, 1, 342, 390, 391
729, 1, 343, 392, 344
730, 1, 343, 391, 392
731, 1, 344, 393, 345
732, 1, 344, 392, 393
733, 1, 345, 394, 346
734, 1, 345, 393, 394
735, 1, 346, 395, 347
736, 1, 346, 394, 395
737, 1, 347, 396, 348
738, 1, 347, 395, 396
739, 1, 348, 397, 349
740, 1, 348, 396, 397
741, 1, 349, 398, 350
742, 1, 349, 397, 398
743, 1, 350, 399, 351
744, 1, 350, 398, 399
745, 1, 351, 400, 352
746, 1, 351, 399, 400
747, 1, 352, 401, 353
748, 1, 352, 400, 401
749, 1, 353, 402, 354
750, 1, 353, 401, 402
751, 1, 354, 403, 355
752, 1, 354, 402, 403
753, 1, 355, 404, 356
754, 1, 355, 403, 404
755, 1, 356, 405, 357
756, 1, 356, 404, 405
757, 1, 357, 406, 358
758, 1, 357, 405, 406
759, 1, 358, 407, 359
760, 1, 358, 406, 407
761, 1, 359, 408, 360
762, 1, 359, 407, 408
763, 1, 360, 409, 361
764, 1, 360, 408, 409
765, 1, 361, 410, 362
766, 1, 361, 409, 410
767, 1, 362, 411, 363
768, 1, 362, 410, 411
769, 1, 363, 412, 364
770, 1, 363, 411, 412
771, 1, 364, 413, 365
772, 1, 364, 412, 413
773, 1, 365, 414, 366
774, 1, 365, 413, 414
775, 1, 366, 415, 367
776, 1, 366, 414, 415
777, 1, 367, 416, 368
778, 1, 367, 415, 416
779, 1, 368, 417, 369
780, 1, 368, 416, 417
781, 1, 369, 418, 370
782, 1, 369, 417, 418
783, 1, 370, 419, 371
784, 1, 370, 418, 419
785, 1, 371, 420, 372
786, 1, 371, 419, 420
787, 1, 372, 421, 373
788, 1, 372, 420, 421
789, 1, 373, 422, 374
790, 1, 373, 421, 422
791, 1, 374, 423, 375
792, 1, 374, 422, 423
793, 1, 375, 424, 376
794, 1, 375, 423, 424
795, 1, 376, 425, 377
796, 1, 376, 424, 425
797, 1, 377, 426, 378
798, 1, 377, 425, 426
799, 1, 378, 427, 379
800, 1, 378, 426, 427
801, 1, 379, 428, 380
802, 1, 379, 427, 428
803, 1, 380, 429, 381
804, 1, 380, 428, 429
805, 1, 381, 430, 382
806, 1, 381, 429, 430
807, 1, 382, 431, 383
808, 1, 382, 430, 431
809, 1, 383, 432, 384
810, 1, 383, 431, 432
811, 1, 384, 433, 385
812, 1, 384, 432, 433
813, 1, 385, 434, 386
814, 1, 385, 433, 434
815, 1, 386, 387, 339
816, 1, 386, 434, 387
817, 1, 387, 436, 388
818, 1, 387, 435, 436
819, 1, 388, 437, 389
820, 1, 388, 436, 437
821, 1, 389, 438, 390
822, 1, 389, 437, 438
823, 1, 390, 439, 391
824, 1, 390, 438, 439
825, 1, 391, 440, 392
826, 1, 391, 439, 440
827, 1, 392, 441, 393
828, 1, 392, 440, 441
829, 1, 393, 442, 394
830, 1, 393, 441, 442
831, 1, 394, 443, 395
832, 1, 394, 442, 443
833, 1, 395, 444, 396
834, 1, 395, 443, 444
835, 1, 396, 445, 397
836, 1, 396, 444, 445
837, 1, 397, 446, 398
838, 1, 397, 445, 446
839, 1, 398, 447, 399
840, 1, 398, 446, 447
841, 1, 399, 448, 400
842, 1, 399, 447, 448
843, 1, 400, 449, 401
844, 1, 400, 448, 449
845, 1, 401, 450, 402
846, 1, 401, 449, 450
847, 1, 402, 451, 403
848, 1, 402, 450, 451
849, 1, 403, 452, 404
850, 1, 403, 451, 452
851, 1, 404, 453, 405
852, 1, 404, 452, 453
853, 1, 405, 454, 406
854, 1, 405, 453, 454
855, 1, 406, 455, 407
856, 1, 406, 454, 455
857, 1, 407, 456, 408
858, 1, 407, 455, 456
859, 1, 408, 457, 409
860, 1, 408, 456, 457
861, 1, 409, 458, 410
862, 1, 409, 457, 458
863, 1, 410, 459, 411
864, 1, 410, 458, 459
865, 1, 411, 460, 412
866, 1, 411, 459, 460
867, 1, 412, 461, 413
868, 1, 412, 460, 461
869, 1, 413, 462, 414
870, 1, 413, 461, 462
871, 1, 414, 463, 415
872, 1, 414, 462, 463
873, 1, 415, 464, 416
874, 1, 415, 463, 464
875, 1, 416, 465, 417
876, 1, 416, 464, 465
877, 1, 417, 466, 418
878, 1, 417, 465, 466
879, 1, 418, 467, 419
880, 1, 418, 466, 467
881, 1, 419, 468, 420
882, 1, 419, 467, 468
883, 1, 420, 469, 421
884, 1, 420, 468, 469
885, 1, 421, 470, 422
886, 1, 421, 469, 470
887, 1, 422, 471, 423
888, 1, 422, 470, 471
889, 1, 423, 472, 424
890, 1, 423, 471, 472
891, 1, 424, 473, 425
892, 1, 424, 472, 473
893, 1, 425, 474, 426
894, 1, 425, 473, 474
895, 1, 426, 475, 427
896, 1, 426, 474, 475
897, 1, 427, 476, 428
898, 1, 427, 475, 476
899, 1, 428, 477, 429
900, 1, 428, 476, 477
901, 1, 429, 478, 430
902, 1, 429, 477, 478
903, 1, 430, 479, 431
904, 1, 430, 478, 479
905, 1, 431, 480, 432
906, 1, 431, 479, 480
907, 1, 432, 481, 433
908, 1, 432, 480, 481
909, 1, 433, 482, 434
910, 1, 433, 481, 482
911, 1, 434, 435, 387
912, 1, 434, 482, 435
913, 1, 435, 484, 436
914, 1, 435, 483, 484
915, 1, 436, 485, 437
916, 1, 436, 484, 485
917, 1, 437, 486, 438
918, 1, 437, 485, 486
919, 1, 438, 487, 439
920, 1, 438, 486, 487
921, 1, 439, 488, 440
922, 1, 439, 487, 488
923, 1, 440, 489, 441
924, 1, 440, 488, 489
925, 1, 441, 490, 442
926, 1, 441, 489, 490
927, 1, 442, 491, 443
928, 1, 442, 490, 491
929, 1, 443, 492, 444
930, 1, 443, 491, 492
931, 1, 444, 493, 445
932, 1, 444, 492, 493
933, 1, 445, 494, 446
934, 1, 445, 493, 494
935, 1, 446, 495, 447
936, 1, 446, 494, 495
937, 1, 447, 496, 448
938, 1, 447, 495, 496
939, 1, 448, 497, 449
940, 1, 448, 496, 497
941, 1, 449, 498, 450
942, 1, 449, 497, 498
943, 1, 450, 499, 451
944, 1, 450, 498, 499
945, 1, 451, 500, 452
946, 1, 451, 499, 500
947, 1, 452, 501, 453
948, 1, 452, 500, 501
949, 1, 453, 502, 454
950, 1, 453, 501, 502
951, 1, 454, 503, 455
952, 1, 454, 502, 503
953, 1, 455, 504, 456
954, 1, 455, 503, 504
955, 1, 456, 505, 457
956, 1, 456, 504, 505
957, 1, 457, 506, 458
958, 1, 457, 505, 506
959, 1, 458, 507, 459
960, 1, 458, 506, 507
961, 1, 459, 508, 460
962, 1, 459, 507, 508
963, 1, 460, 509, 461
964, 1, 460, 508, 509
965, 1, 461, 510, 462
966, 1, 461, 509, 510
967, 1, 462, 511, 463
968, 1, 462, 510, 511
969, 1, 463, 512, 464
970, 1, 463, 511, 512
971, 1, 464, 513, 465
972, 1, 464, 512, 513
973, 1, 465, 514, 466
974, 1, 465, 513, 514
975, 1, 466, 515, 467
976, 1, 466, 514, 515
977, 1, 467, 516, 468
978, 1, 467, 515, 516
979, 1, 468, 517, 469
980, 1, 468, 516, 517
981, 1, 469, 518, 470
982, 1, 469, 517, 518
983, 1, 470, 519, 471
984, 1, 470, 518, 519
985, 1, 471, 520, 472
986, 1, 471, 519, 520
987, 1, 472, 521, 473
988, 1, 472, 520, 521
989, 1, 473, 522, 474
990, 1, 473, 521, 522
991, 1, 474, 523, 475
992, 1, 474, 522, 523
993, 1, 475, 524, 476
994, 1, 475, 523, 524
995, 1, 476, 525, 477
996, 1, 476, 524, 525
997, 1, 477, 526, 478
998, 1, 477, 525, 526
999, 1, 478, 527, 479
1000, 1, 478, 526, 527
1001, 1, 479, 528, 480
1002, 1, 479, 527, 528
1003, 1, 480, 529, 481
1004, 1, 480, 528, 529
1005, 1, 481, 530, 482
1006, 1, 481, 529, 530
1007, 1, 482, 483, 435
1008, 1, 482, 530, 483
1009, 1, 483, 532, 484
1010, 1, 483, 531, 532
1011, 1, 484, 533, 485
1012, 1, 484, 532, 533
1013, 1, 485, 534, 486
1014, 1, 485, 533, 534
1015, 1, 486, 535, 487
1016, 1, 486, 534, 535
1017, 1, 487, 536, 488
1018, 1, 487, 535, 536
1019, 1, 488, 537, 489
1020, 1, 488, 536, 537
1021, 1, 489, 538, 490
1022, 1, 489, 537, 538
1023, 1, 490, 539, 491
1024, 1, 490, 538, 539
1025, 1, 491, 540, 492
1026, 1, 491, 539, 540
1027, 1, 492, 541, 493
1028, 1, 492, 540, 541
1029, 1, 493, 542, 494
1030, 1, 493, 541, 542
1031, 1, 494, 543, 495
1032, 1, 494, 542, 543
1033, 1, 495, 544, 496
1034, 1, 495, 543, 544
1035, 1, 496, 545, 497
1036, 1, 496, 544, 545
1037, 1, 497, 546, 498
1038, 1, 497, 545, 546
1039, 1, 498, 547, 499
1040, 1, 498, 546, 547
1041, 1, 499, 548, 500
1042, 1, 499, 547, 548
1043, 1, 500, 549, 501
1044, 1, 500, 548, 549
1045, 1, 501, 550, 502
1046, 1, 501, 549, 550
1047, 1, 502, 551, 503
1048, 1, 502, 550, 551
1049, 1, 503, 552, 504
1050, 1, 503, 551, 552
1051, 1, 504, 553, 505
1052, 1, 504, 552, 553
1053, 1, 505, 554, 506
1054, 1, 505, 553, 554
1055, 1, 506, 555, 507
1056, 1, 506, 554, 555
1057, 1, 507, 556, 508
1058, 1, 507, 555, 556
1059, 1, 508, 557, 509
1060, 1, 508, 556, 557
1061, 1, 509, 558, 510
1062, 1, 509, 557, 558
1063, 1, 510, 559, 511
1064, 1, 510, 558, 559
1065, 1, 511, 560, 512
1066, 1, 511, 559, 560
1067, 1, 512, 561, 513
1068, 1, 512, 560, 561
1069, 1, 513, 562, 514
1070, 1, 513, 561, 562
1071, 1, 514, 563, 515
1072, 1, 514, 562, 563
1073, 1, 515, 564, 516
1074, 1, 515, 563, 564
1075, 1, 516, 565, 517
1076, 1, 516, 564, 565
1077, 1, 517, 566, 518
1078, 1, 517, 565, 566
1079, 1, 518, 567, 519
1080, 1, 518, 566, 567
1081, 1, 519, 568, 520
1082, 1, 519, 567, 568
1083, 1, 520, 569, 521
1084, 1, 520, 568, 569
1085, 1, 521, 570, 522
1086, 1, 521, 569, 570
1087, 1, 522, 571, 523
1088, 1, 522, 570, 571
1089, 1, 523, 572, 524
1090, 1, 523, 571, 572
1091, 1, 524, 573, 525
1092, 1, 524, 572, 573
1093, 1, 525, 574, 526
1094, 1, 525, 573, 574
1095, 1, 526, 575, 527
1096, 1, 526, 574, 575
1097, 1, 527, 576, 528
1098, 1, 527, 575, 576
1099, 1, 528, 577, 529
1100, 1, 528, 576, 577
1101, 1, 529, 578, 530
1102, 1, 529, 577, 578
1103, 1, 530, 531, 483
1104, 1, 530, 578, 531
1105, 1, 531, 580, 532
1106, 1, 531, 579, 580
1107, 1, 532, 581, 533
1108, 1, 532, 580, 581
1109, 1, 533, 582, 534
1110, 1, 533, 581, 582
1111, 1, 534, 583, 535
1112, 1, 534, 582, 583
1113, 1, 535, 584, 536
1114, 1, 535, 583, 584
1115, 1, 536, 585, 537
1116, 1, 536, 584, 585
1117, 1, 537, 586, 538
1118, 1, 537, 585, 586
1119, 1, 538, 587, 539
1120, 1, 538, 586, 587
1121, 1, 539, 588, 540
1122, 1, 539, 587, 588
1123, 1, 540, 589, 541
1124, 1, 540, 588, 589
1125, 1, 541, 590, 542
1126, 1, 541, 589, 590
1127, 1, 542, 591, 543
1128, 1, 542, 590, 591
1129, 1, 543, 592, 544
1130, 1, 543, 591, 592
1131, 1, 544, 593, 545
1132, 1, 544, 592, 593
1133, 1, 545, 594, 546
1134, 1, 545, 593, 594
1135, 1, 546, 595, 547
1136, 1, 546, 594, 595
1137, 1, 547, 596, 548
1138, 1, 547, 595, 596
1139, 1, 548, 597, 549
1140, 1, 548, 596, 597
1141, 1, 549, 598, 550
1142, 1, 549, 597, 598
1143, 1, 550, 599, 551
1144, 1, 550, 598, 599
1145, 1, 551, 600, 552
1146, 1, 551, 599, 600
1147, 1, 552, 601, 553
1148, 1, 552, 600, 601
1149, 1, 553, 602, 554
1150, 1, 553, 601, 602
1151, 1, 554, 603, 555
1152, 1, 554, 602, 603
1153, 1, 555, 604, 556
1154, 1, 555, 603, 604
1155, 1, 556, 605, 557
1156, 1, 556, 604, 605
1157, 1, 557, 606, 558
1158, 1, 557, 605, 606
1159, 1, 558, 607, 559
1160, 1, 558, 606, 607
1161, 1, 559, 608, 560
1162, 1, 559, 607, 608
1163, 1, 560, 609, 561
1164, 1, 560, 608, 609
1165, 1, 561, 610, 562
1166, 1, 561, 609, 610
1167, 1, 562, 611, 563
1168, 1, 562, 610, 611
1169, 1, 563, 612, 564
1170, 1, 563, 611, 612
1171, 1, 564, 613, 565
1172, 1, 564, 612, 613
1173, 1, 565, 614, 566
1174, 1, 565, 613, 614
1175, 1, 566, 615, 567
1176, 1, 566, 614, 615
1177, 1, 567, 616, 568
1178, 1, 567, 615, 616
1179, 1, 568, 617, 569
1180, 1, 568, 616, 617
1181, 1, 569, 618, 570
1182, 1, 569, 617, 618
1183, 1, 570, 619, 571
1184, 1, 570, 618, 619
1185, 1, 571, 620, 572
1186, 1, 571, 619, 620
1187, 1, 572, 621, 573
1188, 1, 572, 620, 621
1189, 1, 573, 622, 574
1190, 1, 573, 621, 622
1191, 1, 574, 623, 575
1192, 1, 574, 622, 623
1193, 1, 575, 624, 576
1194, 1, 575, 623, 624
1195, 1, 576, 625, 577
1196, 1, 576, 624, 625
1197, 1, 577, 626, 578
1198, 1, 577, 625, 626
1199, 1, 578, 579, 531
1200, 1, 578, 626, 579
1201, 1, 579, 628, 580
1202, 1, 579, 627, 628
1203, 1, 580, 629, 581
1204, 1, 580, 628, 629
1205, 1, 581, 630, 582
1206, 1, 581, 629, 630
1207, 1, 582, 631, 583
1208, 1, 582, 630, 631
1209, 1, 583, 632, 584
1210, 1, 583, 631, 632
1211, 1, 584, 633, 585
1212, 1, 584, 632, 633
1213, 1, 585, 634, 586
1214, 1, 585, 633, 634
1215, 1, 586, 635, 587
1216, 1, 586, 634, 635
1217, 1, 587, 636, 588
1218, 1, 587, 635, 636
1219, 1, 588, 637, 589
1220, 1, 588, 636, 637
1221, 1, 589, 638, 590
1222, 1, 589, 637, 638
1223, 1, 590, 639, 591
1224, 1, 590, 638, 639
1225, 1, 591, 640, 592
1226, 1, 591, 639, 640
1227, 1, 592, 641, 593
1228, 1, 592, 640, 641
1229, 1, 593, 642, 594
1230, 1, 593, 641, 642
1231, 1, 594, 643, 595
1232, 1, 594, 642, 643
1233, 1, 595, 644, 596
1234, 1, 595, 643, 644
1235, 1, 596, 645, 597
1236, 1, 596, 644, 645
1237, 1, 597, 646, 598
1238, 1, 597, 645, 646
1239, 1, 598, 647, 599
1240, 1, 598, 646, 647
1241, 1, 599, 648, 600
1242, 1, 599, 647, 648
1243, 1, 600, 649, 601
1244, 1, 600, 648, 649
1245, 1, 601, 650, 602
1246, 1, 601, 649, 650
1247, 1, 602, 651, 603
1248, 1, 602, 650, 651
1249, 1, 603, 652, 604
1250, 1, 603, 651, 652
1251, 1, 604, 653, 605
1252, 1, 604, 652, 653
1253, 1, 605, 654, 606
1254, 1, 605, 653, 654
1255, 1, 606, 655, 607
1256, 1, 606, 654, 655
1257, 1, 607, 656, 608
1258, 1, 607, 655, 656
1259, 1, 608, 657, 609
1260, 1, 608, 656, 657
1261, 1, 609, 658, 610
1262, 1, 609, 657, 658
1263, 1, 610, 659, 611
1264, 1, 610, 658, 659
1265, 1, 611, 660, 612
1266, 1, 611, 659, 660
1267, 1, 612, 661, 613
1268, 1, 612, 660, 661
1269, 1, 613, 662, 614
1270, 1, 613, 661, 662
1271, 1, 614, 663, 615
1272, 1, 614, 662, 663
1273, 1, 615, 664, 616
1274, 1, 615, 663, 664
1275, 1, 616, 665, 617
1276, 1, 616, 664, 665
1277, 1, 617, 666, 618
1278, 1, 617, 665, 666
1279, 1, 618, 667, 619
1280, 1, 618, 666, 667
1281, 1, 619, 668, 620
1282, 1, 619, 667, 668
1283, 1, 620, 669, 621
1284, 1, 620, 668, 669
1285, 1, 621, 670, 622
1286, 1, 621, 669, 670
1287, 1, 622, 671, 623
1288, 1, 622, 670, 671
1289, 1, 623, 672, 624
1290, 1, 623, 671, 672
1291, 1, 624, 673, 625
1292, 1, 624, 672, 673
1293, 1, 625, 674, 626
1294, 1, 625, 673, 674
1295, 1, 626, 627, 579
1296, 1, 626, 674, 627
1297, 1, 627, 676, 628
1298, 1, 627, 675, 676
1299, 1, 628, 677, 629
1300, 1, 628, 676, 677
1301, 1, 629, 678, 630
1302, 1, 629, 677, 678
1303, 1, 630, 679, 631
1304, 1, 630, 678, 679
1305, 1, 631, 680, 632
1306, 1, 631, 679, 680
1307, 1, 632, 681, 633
1308, 1, 632, 680, 681
1309, 1, 633, 682, 634
1310, 1, 633, 681, 682
1311, 1, 634, 683, 635
1312, 1, 634, 682, 683
1313, 1, 635, 684, 636
1314, 1, 635, 683, 684
1315, 1, 636, 685, 637
1316, 1, 636, 684, 685
1317, 1, 637, 686, 638
1318, 1, 637, 685, 686
1319, 1, 638, 687, 639
1320, 1, 638, 686, 687
1321, 1, 639, 688, 640
1322, 1, 639, 687, 688
1323, 1, 640, 689, 641
1324, 1, 640, 688, 689
1325, 1, 641, 690, 642
1326, 1, 641, 689, 690
1327, 1, 642, 691, 643
1328, 1, 642, 690, 691
1329, 1, 643, 692, 644
1330, 1, 643, 691, 692
1331, 1, 644, 693, 645
1332, 1, 644, 692, 693
1333, 1, 645, 694, 646
1334, 1, 645, 693, 694
1335, 1, 646, 695, 647
1336, 1, 646, 694, 695
1337, 1, 647, 696, 648
1338, 1, 647, 695, 696
1339, 1, 648, 697, 649
1340, 1, 648, 696, 697
1341, 1, 649, 698, 650
1342, 1, 649, 697, 698
1343, 1, 650, 699, 651
1344, 1, 650, 698, 699
1345, 1, 651, 700, 652
1346, 1, 651, 699, 700
1347, 1, 652, 701, 653
1348, 1, 652, 700, 701
1349, 1, 653, 702, 654
1350, 1, 653, 701, 702
1351, 1, 654, 703, 655
1352, 1, 654, 702, 703
1353, 1, 655, 704, 656
1354, 1, 655, 703, 704
1355, 1, 656, 705, 657
1356, 1, 656, 704, 705
1357, 1, 657, 706, 658
1358, 1, 657, 705, 706
1359, 1, 658, 707, 659
1360, 1, 658, 706, 707
1361, 1, 659, 708, 660
1362, 1, 659, 707, 708
1363, 1, 660, 709, 661
1364, 1, 660, 708, 709
1365, 1, 661, 710, 662
1366, 1, 661, 709, 710
1367, 1, 662, 711, 663
1368, 1, 662, 710, 711
1369, 1, 663, 712, 664
1370, 1, 663, 711, 712
1371, 1, 664, 713, 665
1372, 1, 664, 712, 713
1373, 1, 665, 714, 666
1374, 1, 665, 713, 714
1375, 1, 666, 715, 667
1376, 1, 666, 714, 715
1377, 1, 667, 716, 668
1378, 1, 667, 715, 716
1379, 1, 668, 717, 669
1380, 1, 668, 716, 717
1381, 1, 669, 718, 670
1382, 1, 669, 717, 718
1383, 1, 670, 719, 671
1384, 1, 670, 718, 719
1385, 1, 671, 720, 672
1386, 1, 671, 719, 720
1387, 1, 672, 721, 673
1388, 1, 672, 720, 721
1389, 1, 673, 722, 674
1390, 1, 673, 721, 722
1391, 1, 674, 675, 627
1392, 1, 674, 722, 675
1393, 1, 675, 724, 676
1394, 1, 675, 723, 724
1395, 1, 676, 725, 677
1396, 1, 676, 724, 725
1397, 1, 677, 726, 678
1398, 1, 677, 725, 726
1399, 1, 678, 727, 679
1400, 1, 678, 726, 727
1401, 1, 679, 728, 680
1402, 1, 679, 727, 728
1403, 1, 680, 729, 681
1404, 1, 680, 728, 729
1405, 1, 681, 730, 682
1406, 1, 681, 729, 730
1407, 1, 682, 731, 683
1408, 1, 682, 730, 731
1409, 1, 683, 732, 684
1410, 1, 683, 731, 732
1411, 1, 684, 733, 685
1412, 1, 684, 732, 733
1413, 1, 685, 734, 686
1414, 1, 685, 733, 734
1415, 1, 686, 735, 687
1416, 1, 686, 734, 735
1417, 1, 687, 736, 688
1418, 1, 687, 735, 736
1419, 1, 688, 737, 689
1420, 1, 688, 736, 737
1421, 1, 689, 738, 690
1422, 1, 689, 737, 738
1423, 1, 690, 739, 691
1424, 1, 690, 738, 739
1425, 1, 691, 740, 692
1426, 1, 691, 739, 740
1427, 1, 692, 741, 693
1428, 1, 692, 740, 741
1429, 1, 693, 742, 694
1430, 1, 693, 741, 742
1431, 1, 694, 743, 695
1432, 1, 694, 742, 743
1433, 1, 695, 744, 696
1434, 1, 695, 743, 744
1435, 1, 696, 745, 697
1436, 1, 696, 744, 745
1437, 1, 697, 746, 698
1438, 1, 697, 745, 746
1439, 1, 698, 747, 699
1440, 1, 698, 746, 747
1441, 1, 699, 748, 700
1442, 1, 699, 747, 748
1443, 1, 700, 749, 701
1444, 1, 700, 748, 749
1445, 1, 701, 750, 702
1446, 1, 701, 749, 750
1447, 1, 702, 751, 703
1448, 1, 702, 750, 751
1449, 1, 703, 752, 704
1450, 1, 703, 751, 752
1451, 1, 704, 753, 705
1452, 1, 704, 752, 753
1453, 1, 705, 754, 706
1454, 1, 705, 753, 754
1455, 1, 706, 755, 707
1456, 1, 706, 754, 755
1457, 1, 707, 756, 708
1458, 1, 707, 755, 756
1459, 1, 708, 757, 709
1460, 1, 708, 756, 757
1461, 1, 709, 758, 710
1462, 1, 709, 757, 758
1463, 1, 710, 759, 711
1464, 1, 710, 758, 759
1465, 1, 711, 760, 712
1466, 1, 711, 759, 760
1467, 1, 712, 761, 713
1468, 1, 712, 760, 761
1469, 1, 713, 762, 714
1470, 1, 713, 761, 762
1471, 1, 714, 763, 715
1472, 1, 714, 762, 763
1473, 1, 715, 764, 716
1474, 1, 715, 763, 764
1475, 1, 716, 765, 717
1476, 1, 716, 764, 765
1477, 1, 717, 766, 718
1478, 1, 717, 765, 766
1479, 1, 718, 767, 719
1480, 1, 718, 766, 767
1481, 1, 719, 768, 720
1482, 1, 719, 767, 768
1483, 1, 720, 769, 721
1484, 1, 720, 768, 769
1485, 1, 721, 770, 722
1486, 1, 721, 769, 770
1487, 1, 722, 723, 675
1488, 1, 722, 770, 723
1489, 1, 723, 772, 724
1490, 1, 723, 771, 772
1491, 1, 724, 773, 725
1492, 1, 724, 772, 773
1493, 1, 725, 774, 726
1494, 1, 725, 773, 774
1495, 1, 726, 775, 727
1496, 1, 726, 774, 775
1497, 1, 727, 776, 728
1498, 1, 727, 775, 776
1499, 1, 728, 777, 729
1500, 1, 728, 776, 777
1501, 1, 729, 778, 730
1502, 1, 729, 777, 778
1503, 1, 730, 779, 731
1504, 1, 730, 778, 779
1505, 1, 731, 780, 732
1506, 1, 731, 779, 780
1507, 1, 732, 781, 733
1508, 1, 732, 780, 781
1509, 1, 733, 782, 734
1510, 1, 733, 781, 782
1511, 1, 734, 783, 735
1512, 1, 734, 782, 783
1513, 1, 735, 784, 736
1514, 1, 735, 783, 784
1515, 1, 736, 785, 737
1516, 1, 736, 784, 785
1517, 1, 737, 786, 738
1518, 1, 737, 785, 786
1519, 1, 738, 787, 739
1520, 1, 738, 786, 787
1521, 1, 739, 788, 740
1522, 1, 739, 787, 788
1523, 1, 740, 789, 741
1524, 1, 740, 788, 789
1525, 1, 741, 790, 742
1526, 1, 741, 789, 790
1527, 1, 742, 791, 743
1528, 1, 742, 790, 791
1529, 1, 743, 792, 744
1530, 1, 743, 791, 792
1531, 1, 744, 793, 745
1532, 1, 744, 792, 793
1533, 1, 745, 794, 746
1534, 1, 745, 793, 794
1535, 1, 746, 795, 747
1536, 1, 746, 794, 795
1537, 1, 747, 796, 748
1538, 1, 747, 795, 796
1539, 1, 748, 797, 749
1540, 1, 748, 796, 797
1541, 1, 749, 798, 750
1542, 1, 749, 797, 798
1543, 1, 750, 799, 751
1544, 1, 750, 798, 799
1545, 1, 751, 800, 752
1546, 1, 751, 799, 800
1547, 1, 752, 801, 753
1548, 1, 752, 800, 801
1549, 1, 753, 802, 754
1550, 1, 753, 801, 802
1551, 1, 754, 803, 755
1552, 1, 754, 802, 803
1553, 1, 755, 804, 756
1554, 1, 755, 803, 804
1555, 1, 756, 805, 757
1556, 1, 756, 804, 805
1557, 1, 757, 806, 758
1558, 1, 757, 805, 806
1559, 1, 758, 807, 759
1560, 1, 758, 806, 807
1561, 1, 759, 808, 760
1562, 1, 759, 807, 808
1563, 1, 760, 809, 761
1564, 1, 760, 808, 809
1565, 1, 761, 810, 762
1566, 1, 761, 809, 810
1567, 1, 762, 811, 763
1568, 1, 762, 810, 811
1569, 1, 763, 812, 764
1570, 1, 763, 811, 812
1571, 1, 764, 813, 765
1572, 1, 764, 812, 813
1573, 1, 765, 814, 766
1574, 1, 765, 813, 814
1575, 1, 766, 815, 767
1576, 1, 766, 814, 815
1577, 1, 767, 816, 768
1578, 1, 767, 815, 816
1579, 1, 768, 817, 769
1580, 1, 768, 816, 817
1581, 1, 769, 818, 770
1582, 1, 769, 817, 818
1583, 1, 770, 771, 723
1584, 1, 770, 818, 771
1585, 1, 771, 820, 772
1586, 1, 771, 819, 820
1587, 1, 772, 821, 773
1588, 1, 772, 820, 821
1589, 1, 773, 822, 774
1590, 1, 773, 821, 822
1591, 1, 774, 823, 775
1592, 1, 774, 822, 823
1593, 1, 775, 824, 776
1594, 1, 775, 823, 824
1595, 1, 776, 825, 777
1596, 1, 776, 824, 825
1597, 1, 777, 826, 778
1598, 1, 777, 825, 826
1599, 1, 778, 827, 779
1600, 1, 778, 826, 827
1601, 1, 779, 828, 780
1602, 1, 779, 827, 828
1603, 1, 780, 829, 781
1604, 1, 780, 828, 829
1605, 1, 781, 830, 782
1606, 1, 781, 829, 830
1607, 1, 782, 831, 783
1608, 1, 782, 830, 831
1609, 1, 783, 832, 784
1610, 1, 783, 831, 832
1611, 1, 784, 833, 785
1612, 1, 784, 832, 833
1613, 1, 785, 834, 786
1614, 1, 785, 833, 834
1615, 1, 786, 835, 787
1616, 1, 786, 834, 835
1617, 1, 787, 836, 788
1618, 1, 787, 835, 836
1619, 1, 788, 837, 789
1620, 1, 788, 836, 837
1621, 1, 789, 838, 790
1622, 1, 789, 837, 838
1623, 1, 790, 839, 791
1624, 1, 790, 838, 839
1625, 1, 791, 840, 792
1626, 1, 791, 839, 840
1627, 1, 792, 841, 793
1628, 1, 792, 840, 841
1629, 1, 793, 842, 794
1630, 1, 793, 841, 842
1631, 1, 794, 843, 795
1632, 1, 794, 842, 843
1633, 1, 795, 844, 796
1634, 1, 795, 843, 844
1635, 1, 796, 845, 797
1636, 1, 796, 844, 845
1637, 1, 797, 846, 798
1638, 1, 797, 845, 846
1639, 1, 798, 847, 799
1640, 1, 798, 846, 847
1641, 1, 799, 848, 800
1642, 1, 799, 847, 848
1643, 1, 800, 849, 801
1644, 1, 800, 848, 849
1645, 1, 801, 850, 802
1646, 1, 801, 849, 850
1647, 1, 802, 851, 803
1648, 1, 802, 850, 851
1649, 1, 803, 852, 804
1650, 1, 803, 851, 852
1651, 1, 804, 853, 805
1652, 1, 804, 852, 853
1653, 1, 805, 854, 806
1654, 1, 805, 853, 854
1655, 1, 806, 855, 807
1656, 1, 806, 854, 855
1657, 1, 807, 856, 808
1658, 1, 807, 855, 856
1659, 1, 808, 857, 809
1660, 1, 808, 856, 857
1661, 1, 809, 858, 810
1662, 1, 809, 857, 858
1663, 1, 810, 859, 811
1664, 1, 810, 858, 859
1665, 1, 811, 860, 812
1666, 1, 811, 859, 860
1667, 1, 812, 861, 813
1668, 1, 812, 860, 861
1669, 1, 813, 862, 814
1670, 1, 813, 861, 862
1671, 1, 814, 863, 815
1672, 1, 814, 862, 863
1673, 1, 815, 864, 816
1674, 1, 815, 863, 864
1675, 1, 816, 865, 817
1676, 1, 816, 864, 865
1677, 1, 817, 866, 818
1678, 1, 817, 865, 866
1679, 1, 818, 819, 771
1680, 1, 818, 866, 819
1681, 1, 819, 868, 820
1682, 1, 819, 867, 868
1683, 1, 820, 869, 821
1684, 1, 820, 868, 869
1685, 1, 821, 870, 822
1686, 1, 821, 869, 870
1687, 1, 822, 871, 823
1688, 1, 822, 870, 871
1689, 1, 823, 872, 824
1690, 1, 823, 871, 872
1691, 1, 824, 873, 825
1692, 1, 824, 872, 873
1693, 1, 825, 874, 826
1694, 1, 825, 873, 874
1695, 1, 826, 875, 827
1696, 1, 826, 874, 875
1697, 1, 827, 876, 828
1698, 1, 827, 875, 876
1699, 1, 828, 877, 829
1700, 1, 828, 876, 877
1701, 1, 829, 878, 830
1702, 1, 829, 877, 878
1703, 1, 830, 879, 831
1704, 1, 830, 878, 879
1705, 1, 831, 880, 832
1706, 1, 831, 879, 880
1707, 1, 832, 881, 833
1708, 1, 832, 880, 881
1709, 1, 833, 882, 834
1710, 1, 833, 881, 882
1711, 1, 834, 883, 835
1712, 1, 834, 882, 883
1713, 1, 835, 884, 836
1714, 1, 835, 883, 884
1715, 1, 836, 885, 837
1716, 1, 836, 884, 885
1717, 1, 837, 886, 838
1718, 1, 837, 885, 886
1719, 1, 838, 887, 839
1720, 1, 838, 886, 887
1721, 1, 839, 888, 840
1722, 1, 839, 887, 888
1723, 1, 840, 889, 841
1724, 1, 840, 888, 889
1725, 1, 841, 890, 842
1726, 1, 841, 889, 890
1727, 1, 842, 891, 843
1728, 1, 842, 890, 891
1729, 1, 843, 892, 844
1730, 1, 843, 891, 892
1731, 1, 844, 893, 845
1732, 1, 844, 892, 893
1733, 1, 845, 894, 846
1734, 1, 845, 893, 894
1735, 1, 846, 895, 847
1736, 1, 846, 894, 895
1737, 1, 847, 896, 848
1738, 1, 847, 895, 896
1739, 1, 848, 897, 849
1740, 1, 848, 896, 897
1741, 1, 849, 898, 850
1742, 1, 849, 897, 898
1743, 1, 850, 899, 851
1744, 1, 850, 898, 899
1745, 1, 851, 900, 852
1746, 1, 851, 899, 900
1747, 1, 852, 901, 853
1748, 1, 852, 900, 901
1749, 1, 853, 902, 854
1750, 1, 853, 901, 902
1751, 1, 854, 903, 855
1752, 1, 854, 902, 903
1753, 1, 855, 904, 856
1754, 1, 855, 903, 904
1755, 1, 856, 905, 857
1756, 1, 856, 904, 905
1757, 1, 857, 906, 858
1758, 1, 857, 905, 906
1759, 1, 858, 907, 859
1760, 1, 858, 906, 907
1761, 1, 859, 908, 860
1762, 1, 859, 907, 908
1763, 1, 860, 909, 861
1764, 1, 860, 908, 909
1765, 1, 861, 910, 862
1766, 1, 861, 909, 910
1767, 1, 862, 911, 863
1768, 1, 862, 910, 911
1769, 1, 863, 912, 864
1770, 1, 863, 911, 912
1771, 1, 864, 913, 865
1772, 1, 864, 912, 913
1773, 1, 865, 914, 866
1774, 1, 865, 913, 914
1775, 1, 866, 867, 819
1776, 1, 866, 914, 867
1777, 1, 867, 916, 868
1778, 1, 867, 915, 916
1779, 1, 868, 917, 869
1780, 1, 868, 916, 917
1781, 1, 869, 918, 870
1782, 1, 869, 917, 918
1783, 1, 870, 919, 871
1784, 1, 870, 918, 919
1785, 1, 871, 920, 872
1786, 1, 871, 919, 920
1787, 1, 872, 921, 873
1788, 1, 872, 920, 921
1789, 1, 873, 922, 874
1790, 1, 873, 921, 922
1791, 1, 874, 923, 875
1792, 1, 874, 922, 923
1793, 1, 875, 924, 876
1794, 1, 875, 923, 924
1795, 1, 876, 925, 877
1796, 1, 876, 924, 925
1797, 1, 877, 926, 878
1798, 1, 877, 925, 926
1799, 1, 878, 927, 879
1800, 1, 878, 926, 927
1801, 1, 879, 928, 880
1802, 1, 879, 927, 928
1803, 1, 880, 929, 881
1804, 1, 880, 928, 929
1805, 1, 881, 930, 882
1806, 1, 881, 929, 930
1807, 1, 882, 931, 883
1808, 1, 882, 930, 931
1809, 1, 883, 932, 884
1810, 1, 883, 931, 932
1811, 1, 884, 933, 885
1812, 1, 884, 932, 933
1813, 1, 885, 934, 886
1814, 1, 885, 933, 934
1815, 1, 886, 935, 887
1816, 1, 886, 934, 935
1817, 1, 887, 936, 888
1818, 1, 887, 935, 936
1819, 1, 888, 937, 889
1820, 1, 888, 936, 937
1821, 1, 889, 938, 890
1822, 1, 889, 937, 938
1823, 1, 890, 939, 891
1824, 1, 890, 938, 939
1825, 1, 891, 940, 892
1826, 1, 891, 939, 940
1827, 1, 892, 941, 893
1828, 1, 892, 940, 941
1829, 1, 893, 942, 894
1830, 1, 893, 941, 942
1831, 1, 894, 943, 895
1832, 1, 894, 942, 943
1833, 1, 895, 944, 896
1834, 1, 895, 943, 944
1835, 1, 896, 945, 897
1836, 1, 896, 944, 945
1837, 1, 897, 946, 898
1838, 1, 897, 945, 946
1839, 1, 898, 947, 899
1840, 1, 898, 946, 947
1841, 1, 899, 948, 900
1842, 1, 899, 947, 948
1843, 1, 900, 949, 901
1844, 1, 900, 948, 949
1845, 1, 901, 950, 902
1846, 1, 901, 949, 950
1847, 1, 902, 951, 903
1848, 1, 902, 950, 951
1849, 1, 903, 952, 904
1850, 1, 903, 951, 952
1851, 1, 904, 953, 905
1852, 1, 904, 952, 953
1853, 1, 905, 954, 906
1854, 1, 905, 953, 954
1855, 1, 906, 955, 907
1856, 1, 906, 954, 955
1857, 1, 907, 956, 908
1858, 1, 907, 955, 956
1859, 1, 908, 957, 909
1860, 1, 908, 956, 957
1861, 1, 909, 958, 910
1862, 1, 909, 957, 958
1863, 1, 910, 959, 911
1864, 1, 910, 958, 959
1865, 1, 911, 960, 912
1866, 1, 911, 959, 960
1867, 1, 912, 961, 913
1868, 1, 912, 960, 961
1869, 1, 913, 962, 914
1870, 1, 913, 961, 962
1871, 1, 914, 915, 867
1872, 1, 914, 962, 915
1873, 1, 915, 964, 916
1874, 1, 915, 963, 964
1875, 1, 916, 965, 917
1876, 1, 916, 964, 965
1877, 1, 917, 966, 918
1878, 1, 917, 965, 966
1879, 1, 918, 967, 919
1880, 1, 918, 966, 967
1881, 1, 919, 968, 920
1882, 1, 919, 967, 968
1883, 1, 920, 969, 921
1884, 1, 920, 968, 969
1885, 1, 921, 970, 922
1886, 1, 921, 969, 970
1887, 1, 922, 971, 923
1888, 1, 922, 970, 971
1889, 1, 923, 972, 924
1890, 1, 923, 971, 972
1891, 1, 924, 973, 925
1892, 1, 924, 972, 973
1893, 1, 925, 974, 926
1894, 1, 925, 973, 974
1895, 1, 926, 975, 927
1896, 1, 926, 974, 975
1897, 1, 927, 976, 928
1898, 1, 927, 975, 976
1899, 1, 928, 977, 929
1900, 1, 928, 976, 977
1901, 1, 929, 978, 930
1902, 1, 929, 977, 978
1903, 1, 930, 979, 931
1904, 1, 930, 978, 979
1905, 1, 931, 980, 932
1906, 1, 931, 979, 980
1907, 1, 932, 981, 933
1908, 1, 932, 980, 981
1909, 1, 933, 982, 934
1910, 1, 933, 981, 982
1911, 1, 934, 983, 935
1912, 1, 934, 982, 983
1913, 1, 935, 984, 936
1914, 1, 935, 983, 984
1915, 1, 936, 985, 937
1916, 1, 936, 984, 985
1917, 1, 937, 986, 938
1918, 1, 937, 985, 986
1919, 1, 938, 987, 939
1920, 1, 938, 986, 987
1921, 1, 939, 988, 940
1922, 1, 939, 987, 988
1923, 1, 940, 989, 941
1924, 1, 940, 988, 989
1925, 1, 941, 990, 942
1926, 1, 941, 989, 990
1927, 1, 942, 991, 943
1928, 1, 942, 990, 991
1929, 1, 943, 992, 944
1930, 1, 943, 991, 992
1931, 1, 944, 993, 945
1932, 1, 944, 992, 993
1933, 1, 945, 994, 946
1934, 1, 945, 993, 994
1935, 1, 946, 995, 947
1936, 1, 946, 994, 995
1937, 1, 947, 996, 948
1938, 1, 947, 995, 996
1939, 1, 948, 997, 949
1940, 1, 948, 996, 997
1941, 1, 949, 998, 950
1942, 1, 949, 997, 998
1943, 1, 950, 999, 951
1944, 1, 950, 998, 999
1945, 1, 951, 1000, 952
1946, 1, 951, 999, 1000
1947, 1, 952, 1001, 953
1948, 1, 952, 1000, 1001
1949, 1, 953, 1002, 954
1950, 1, 953, 1001, 1002
1951, 1, 954, 1003, 955
1952, 1, 954, 1002, 1003
1953, 1, 955, 1004, 956
1954, 1, 955, 1003, 1004
1955, 1, 956, 1005, 957
1956, 1, 956, 1004, 1005
1957, 1, 957, 1006, 958
1958, 1, 957, 1005, 1006
1959, 1, 958, 1007, 959
1960, 1, 958, 1006, 1007
1961, 1, 959, 1008, 960
1962, 1, 959, 1007, 1008
1963, 1, 960, 1009, 961
1964, 1, 960, 1008, 1009
1965, 1, 961, 1010, 962
1966, 1, 961, 1009, 1010
1967, 1, 962, 963, 915
1968, 1, 962, 1010, 963
1969, 1, 963, 1012, 964
1970, 1, 963, 1011, 1012
1971, 1, 964, 1013, 965
1972, 1, 964, 1012, 1013
1973, 1, 965, 1014, 966
1974, 1, 965, 1013, 1014
1975, 1, 966, 1015, 967
1976, 1, 966, 1014, 1015
1977, 1, 967, 1016, 968
1978, 1, 967, 1015, 1016
1979, 1, 968, 1017, 969
1980, 1, 968, 1016, 1017
1981, 1, 969, 1018, 970
1982, 1, 969, 1017, 1018
1983, 1, 970, 1019, 971
1984, 1, 970, 1018, 1019
1985, 1, 971, 1020, 972
1986, 1, 971, 1019, 1020
1987, 1, 972, 1021, 973
1988, 1, 972, 1020, 1021
1989, 1, 973, 1022, 974
1990, 1, 973, 1021, 1022
1991, 1, 974, 1023, 975
1992, 1, 974, 1022, 1023
1993, 1, 975, 1024, 976
1994, 1, 975, 1023, 1024
1995, 1, 976, 1025, 977
1996, 1, 976, 1024, 1025
1997, 1, 977, 1026, 978
1998, 1, 977, 1025, 1026
1999, 1, 978, 1027, 979
2000, 1, 978, 1026, 1027
2001, 1, 979, 1028, 980
2002, 1, 979, 1027, 1028
2003, 1, 980, 1029, 981
2004, 1, 980, 1028, 1029
2005, 1, 981, 1030, 982
2006, 1, 981, 1029, 1030
2007, 1, 982, 1031, 983
2008, 1, 982, 1030, 1031
2009, 1, 983, 1032, 984
2010, 1, 983, 1031, 1032
2011, 1, 984, 1033, 985
2012, 1, 984, 1032, 1033
2013, 1, 985, 1034, 986
2014, 1, 985, 1033, 1034
2015, 1, 986, 1035, 987
2016, 1, 986, 1034, 1035
2017, 1, 987, 1036, 988
2018, 1, 987, 1035, 1036
2019, 1, 988, 1037, 989
2020, 1, 988, 1036, 1037
2021, 1, 989, 1038, 990
2022, 1, 989, 1037, 1038
2023, 1, 990, 1039, 991
2024, 1, 990, 1038, 1039
2025, 1, 991, 1040, 992
2026, 1, 991, 1039, 1040
2027, 1, 992, 1041, 993
2028, 1, 992, 1040, 1041
2029, 1, 993, 1042, 994
2030, 1, 993, 1041, 1042
2031, 1, 994, 1043, 995
2032, 1, 994, 1042, 1043
2033, 1, 995, 1044, 996
2034, 1, 995, 1043, 1044
2035, 1, 996, 1045, 997
2036, 1, 996, 1044, 1045
2037, 1, 997, 1046, 998
2038, 1, 997, 1045, 1046
2039, 1, 998, 1047, 999
2040, 1, 998, 1046, 1047
2041, 1, 999, 1048, 1000
2042, 1, 999, 1047, 1048
2043, 1, 1000, 1049, 1001
2044, 1, 1000, 1048, 1049
2045, 1, 1001, 1050, 1002
2046, 1, 1001, 1049, 1050
2047, 1, 1002, 1051, 1003
2048, 1, 1002, 1050, 1051
2049, 1, 1003, 1052, 1004
2050, 1, 1003, 1051, 1052
2051, 1, 1004, 1053, 1005
2052, 1, 1004, 1052, 1053
2053, 1, 1005, 1054, 1006
2054, 1, 1005, 1053, 1054
2055, 1, 1006, 1055, 1007
2056, 1, 1006, 1054, 1055
2057, 1, 1007, 1056, 1008
2058, 1, 1007, 1055, 1056
2059, 1, 1008, 1057, 1009
2060, 1, 1008, 1056, 1057
2061, 1, 1009, 1058, 1010
2062, 1, 1009, 1057, 1058
2063, 1, 1010, 1011, 963
2064, 1, 1010, 1058, 1011
2065, 1, 1011, 1060, 1012
2066, 1, 1011, 1059, 1060
2067, 1, 1012, 1061, 1013
2068, 1, 1012, 1060, 1061
2069, 1, 1013, 1062, 1014
2070, 1, 1013, 1061, 1062
2071, 1, 1014, 1063, 1015
2072, 1, 1014, 1062, 1063
2073, 1, 1015, 1064, 1016
2074, 1, 1015, 1063, 1064
2075, 1, 1016, 1065, 1017
2076, 1, 1016, 1064, 1065
2077, 1, 1017, 1066, 1018
2078, 1, 1017, 1065, 1066
2079, 1, 1018, 1067, 1019
2080, 1, 1018, 1066, 1067
2081, 1, 1019, 1068, 1020
2082, 1, 1019, 1067, 1068
2083, 1, 1020, 1069, 1021
2084, 1, 1020, 1068, 1069
2085, 1, 1021, 1070, 1022
2086, 1, 1021, 1069, 1070
2087, 1, 1022, 1071, 1023
2088, 1, 1022, 1070, 1071
2089, 1, 1023, 1072, 1024
2090, 1, 1023, 1071, 1072
2091, 1, 1024, 1073, 1025
2092, 1, 1024, 1072, 1073
2093, 1, 1025, 1074, 1026
2094, 1, 1025, 1073, 1074
2095, 1, 1026, 1075, 1027
2096, 1, 1026, 1074, 1075
2097, 1, 1027, 1076, 1028
2098, 1, 1027, 1075, 1076
2099, 1, 1028, 1077, 1029
2100, 1, 1028, 1076, 1077
2101, 1, 1029, 1078, 1030
2102, 1, 1029, 1077, 1078
2103, 1, 1030, 1079, 1031
2104, 1, 1030, 1078, 1079
2105, 1, 1031, 1080, 1032
2106, 1, 1031, 1079, 1080
2107, 1, 1032, 1081, 1033
2108, 1, 1032, 1080, 1081
2109, 1, 1033, 1082, 1034
2110, 1, 1033, 1081, 1082
2111, 1, 1034, 1083, 1035
2112, 1, 1034, 1082, 1083
2113, 1, 1035, 1084, 1036
2114, 1, 1035, 1083, 1084
2115, 1, 1036, 1085, 1037
2116, 1, 1036, 1084, 1085
2117, 1, 1037, 1086, 1038
2118, 1, 1037, 1085, 1086
2119, 1, 1038, 1087, 1039
2120, 1, 1038, 1086, 1087
2121, 1, 1039, 1088, 1040
2122, 1, 1039, 1087, 1088
2123, 1, 1040, 1089, 1041
2124, 1, 1040, 1088, 1089
2125, 1, 1041, 1090, 1042
2126, 1, 1041, 1089, 1090
2127, 1, 1042, 1091, 1043
2128, 1, 1042, 1090, 1091
2129, 1, 1043, 1092, 1044
2130, 1, 1043, 1091, 1092
2131, 1, 1044, 1093, 1045
2132, 1, 1044, 1092, 1093
2133, 1, 1045, 1094, 1046
2134, 1, 1045, 1093, 1094
2135, 1, 1046, 1095, 1047
2136, 1, 1046, 1094, 1095
2137, 1, 1047, 1096, 1048
2138, 1, 1047, 1095, 1096
2139, 1, 1048, 1097, 1049
2140, 1, 1048, 1096, 1097
2141, 1, 1049, 1098, 1050
2142, 1, 1049, 1097, 1098
2143, 1, 1050, 1099, 1051
2144, 1, 1050, 1098, 1099
2145, 1, 1051, 1100, 1052
2146, 1, 1051, 1099, 1100
2147, 1, 1052, 1101, 1053
2148, 1, 1052, 1100, 1101
2149, 1, 1053, 1102, 1054
2150, 1, 1053, 1101, 1102
2151, 1, 1054, 1103, 1055
2152, 1, 1054, 1102, 1103
2153, 1, 1055, 1104, 1056
2154, 1, 1055, 1103, 1104
2155, 1, 1056, 1105, 1057
2156, 1, 1056, 1104, 1105
2157, 1, 1057, 1106, 1058
2158, 1, 1057, 1105, 1106
2159, 1, 1058, 1059, 1011
2160, 1, 1058, 1106, 1059
2161, 1, 1107, 1060, 1059
2162, 1, 1107, 1061, 1060
2163, 1, 1107, 1062, 1061
2164, 1, 1107, 1063, 1062
2165, 1, 1107, 1064, 1063
2166, 1, 1107, 1065, 1064
2167, 1, 1107, 1066, 1065
2168, 1, 1107, 1067, 1066
2169, 1, 1107, 1068, 1067
2170, 1, 1107, 1069, 1068
2171, 1, 1107, 1070, 1069
2172, 1, 1107, 1071, 1070
2173, 1, 1107, 1072, 1071
2174, 1, 1107, 1073, 1072
2175, 1, 1107, 1074, 1073
2176, 1, 1107, 1075, 1074
2177, 1, 1107, 1076, 1075
2178, 1, 1107, 1077, 1076
2179, 1, 1107, 1078, 1077
2180, 1, 1107, 1079, 1078
2181, 1, 1107, 1080, 1079
2182, 1, 1107, 1081, 1080
2183, 1, 1107, 1082, 1081
2184, 1, 1107, 1083, 1082
2185, 1, 1107, 1084, 1083
2186, 1, 1107, 1085, 1084
2187, 1, 1107, 1086, 1085
2188, 1, 1107, 1087, 1086
2189, 1, 1107, 1088, 1087
2190, 1, 1107, 1089, 1088
2191, 1, 1107, 1090, 1089
2192, 1, 1107, 1091, 1090
2193, 1, 1107, 1092, 1091
2194, 1, 1107, 1093, 1092
2195, 1, 1107, 1094, 1093
2196, 1, 1107, 1095, 1094
2197, 1, 1107, 1096, 1095
2198, 1, 1107, 1097, 1096
2199, 1, 1107, 1098, 1097
2200, 1, 1107, 1099, 1098
2201, 1, 1107, 1100, 1099
2202, 1, 1107, 1101, 1100
2203, 1, 1107, 1102, 1101
2204, 1, 1107, 1103, 1102
2205, 1, 1107, 1104, 1103
2206, 1, 1107, 1105, 1104
2207, 1, 1107, 1106, 1105
2208, 1, 1107, 1059, 1106
*Elset, elset=SPHERE_EALL, generate
1, 2208, 1
*Solid Section, elset=SPHERE_EALL, material=SPHERE_MAT
,
*End Part
*Assembly, name=ASSEMBLY
*Instance, name=BEAM-1, part=BEAM
*End Instance
*Instance, name=SPHERE-1, part=SPHERE
*End Instance
*Nset, nset=BEAM_FIXED, instance=BEAM-1
1, 62, 123, 184, 245, 306, 367, 428, 489, 550, 611, 672, 733, 794, 855, 916
977, 1038, 1099, 1160, 1221, 1282, 1343, 1404, 1465, 1526, 1587, 1648, 1709, 1770, 1831, 1892
1953, 2014, 2075, 2136, 2197, 2258, 2319, 2380, 2441, 2502, 2563, 2624, 2685
*Nset, nset=SPHERE_NODES, instance=SPHERE-1
1, 2, 3, 4, 5, 6, 7, 8, 9, 10, 11, 12, 13, 14, 15, 16
17, 18, 19, 20, 21, 22, 23, 24, 25, 26, 27, 28, 29, 30, 31, 32
33, 34, 35, 36, 37, 38, 39, 40, 41, 42, 43, 44, 45, 46, 47, 48
49, 50, 51, 52, 53, 54, 55, 56, 57, 58, 59, 60, 61, 62, 63, 64
65, 66, 67, 68, 69, 70, 71, 72, 73, 74, 75, 76, 77, 78, 79, 80
81, 82, 83, 84, 85, 86, 87, 88, 89, 90, 91, 92, 93, 94, 95, 96
97, 98, 99, 100, 101, 102, 103, 104, 105, 106, 107, 108, 109, 110, 111, 112
113, 114, 115, 116, 117, 118, 119, 120, 121, 122, 123, 124, 125, 126, 127, 128
129, 130, 131, 132, 133, 134, 135, 136, 137, 138, 139, 140, 141, 142, 143, 144
145, 146, 147, 148, 149, 150, 151, 152, 153, 154, 155, 156, 157, 158, 159, 160
161, 162, 163, 164, 165, 166, 167, 168, 169, 170, 171, 172, 173, 174, 175, 176
177, 178, 179, 180, 181, 182, 183, 184, 185, 186, 187, 188, 189, 190, 191, 192
193, 194, 195, 196, 197, 198, 199, 200, 201, 202, 203, 204, 205, 206, 207, 208
209, 210, 211, 212, 213, 214, 215, 216, 217, 218, 219, 220, 221, 222, 223, 224
225, 226, 227, 228, 229, 230, 231, 232, 233, 234, 235, 236, 237, 238, 239, 240
241, 242, 243, 244, 245, 246, 247, 248, 249, 250, 251, 252, 253, 254, 255, 256
257, 258, 259, 260, 261, 262, 263, 264, 265, 266, 267, 268, 269, 270, 271, 272
273, 274, 275, 276, 277, 278, 279, 280, 281, 282, 283, 284, 285, 286, 287, 288
289, 290, 291, 292, 293, 294, 295, 296, 297, 298, 299, 300, 301, 302, 303, 304
305, 306, 307, 308, 309, 310, 311, 312, 313, 314, 315, 316, 317, 318, 319, 320
321, 322, 323, 324, 325, 326, 327, 328, 329, 330, 331, 332, 333, 334, 335, 336
337, 338, 339, 340, 341, 342, 343, 344, 345, 346, 347, 348, 349, 350, 351, 352
353, 354, 355, 356, 357, 358, 359, 360, 361, 362, 363, 364, 365, 366, 367, 368
369, 370, 371, 372, 373, 374, 375, 376, 377, 378, 379, 380, 381, 382, 383, 384
385, 386, 387, 388, 389, 390, 391, 392, 393, 394, 395, 396, 397, 398, 399, 400
401, 402, 403, 404, 405, 406, 407, 408, 409, 410, 411, 412, 413, 414, 415, 416
417, 418, 419, 420, 421, 422, 423, 424, 425, 426, 427, 428, 429, 430, 431, 432
433, 434, 435, 436, 437, 438, 439, 440, 441, 442, 443, 444, 445, 446, 447, 448
449, 450, 451, 452, 453, 454, 455, 456, 457, 458, 459, 460, 461, 462, 463, 464
465, 466, 467, 468, 469, 470, 471, 472, 473, 474, 475, 476, 477, 478, 479, 480
481, 482, 483, 484, 485, 486, 487, 488, 489, 490, 491, 492, 493, 494, 495, 496
497, 498, 499, 500, 501, 502, 503, 504, 505, 506, 507, 508, 509, 510, 511, 512
513, 514, 515, 516, 517, 518, 519, 520, 521, 522, 523, 524, 525, 526, 527, 528
529, 530, 531, 532, 533, 534, 535, 536, 537, 538, 539, 540, 541, 542, 543, 544
545, 546, 547, 548, 549, 550, 551, 552, 553, 554, 555, 556, 557, 558, 559, 560
561, 562, 563, 564, 565, 566, 567, 568, 569, 570, 571, 572, 573, 574, 575, 576
577, 578, 579, 580, 581, 582, 583, 584, 585, 586, 587, 588, 589, 590, 591, 592
593, 594, 595, 596, 597, 598, 599, 600, 601, 602, 603, 604, 605, 606, 607, 608
609, 610, 611, 612, 613, 614, 615, 616, 617, 618, 619, 620, 621, 622, 623, 624
625, 626, 627, 628, 629, 630, 631, 632, 633, 634, 635, 636, 637, 638, 639, 640
641, 642, 643, 644, 645, 646, 647, 648, 649, 650, 651, 652, 653, 654, 655, 656
657, 658, 659, 660, 661, 662, 663, 664, 665, 666, 667, 668, 669, 670, 671, 672
673, 674, 675, 676, 677, 678, 679, 680, 681, 682, 683, 684, 685, 686, 687, 688
689, 690, 691, 692, 693, 694, 695, 696, 697, 698, 699, 700, 701, 702, 703, 704
705, 706, 707, 708, 709, 710, 711, 712, 713, 714, 715, 716, 717, 718, 719, 720
721, 722, 723, 724, 725, 726, 727, 728, 729, 730, 731, 732, 733, 734, 735, 736
737, 738, 739, 740, 741, 742, 743, 744, 745, 746, 747, 748, 749, 750, 751, 752
753, 754, 755, 756, 757, 758, 759, 760, 761, 762, 763, 764, 765, 766, 767, 768
769, 770, 771, 772, 773, 774, 775, 776, 777, 778, 779, 780, 781, 782, 783, 784
785, 786, 787, 788, 789, 790, 791, 792, 793, 794, 795, 796, 797, 798, 799, 800
801, 802, 803, 804, 805, 806, 807, 808, 809, 810, 811, 812, 813, 814, 815, 816
817, 818, 819, 820, 821, 822, 823, 824, 825, 826, 827, 828, 829, 830, 831, 832
833, 834, 835, 836, 837, 838, 839, 840, 841, 842, 843, 844, 845, 846, 847, 848
849, 850, 851, 852, 853, 854, 855, 856, 857, 858, 859, 860, 861, 862, 863, 864
865, 866, 867, 868, 869, 870, 871, 872, 873, 874, 875, 876, 877, 878, 879, 880
881, 882, 883, 884, 885, 886, 887, 888, 889, 890, 891, 892, 893, 894, 895, 896
897, 898, 899, 900, 901, 902, 903, 904, 905, 906, 907, 908, 909, 910, 911, 912
913, 914, 915, 916, 917, 918, 919, 920, 921, 922, 923, 924, 925, 926, 927, 928
929, 930, 931, 932, 933, 934, 935, 936, 937, 938, 939, 940, 941, 942, 943, 944
945, 946, 947, 948, 949, 950, 951, 952, 953, 954, 955, 956, 957, 958, 959, 960
961, 962, 963, 964, 965, 966, 967, 968, 969, 970, 971, 972, 973, 974, 975, 976
977, 978, 979, 980, 981, 982, 983, 984, 985, 986, 987, 988, 989, 990, 991, 992
993, 994, 995, 996, 997, 998, 999, 1000, 1001, 1002, 1003, 1004, 1005, 1006, 1007, 1008
1009, 1010, 1011, 1012, 1013, 1014, 1015, 1016, 1017, 1018, 1019, 1020, 1021, 1022, 1023, 1024
1025, 1026, 1027, 1028, 1029, 1030, 1031, 1032, 1033, 1034, 1035, 1036, 1037, 1038, 1039, 1040
1041, 1042, 1043, 1044, 1045, 1046, 1047, 1048, 1049, 1050, 1051, 1052, 1053, 1054, 1055, 1056
1057, 1058, 1059, 1060, 1061, 1062, 1063, 1064, 1065, 1066, 1067, 1068, 1069, 1070, 1071, 1072
1073, 1074, 1075, 1076, 1077, 1078, 1079, 1080, 1081, 1082, 1083, 1084, 1085, 1086, 1087, 1088
1089, 1090, 1091, 1092, 1093, 1094, 1095, 1096, 1097, 1098, 1099, 1100, 1101, 1102, 1103, 1104
1105, 1106, 1107
*End Assembly
*Initial Conditions, type=VELOCITY
SPHERE_NODES, 3, -1.200000000000e+00
*Boundary
BEAM_FIXED, ENCASTRE
*Step, name=DROP_IMPACT, nlgeom=YES
*Dynamic, Explicit, DIRECT USER CONTROL
1.000000000000e-05, 2.000000000000e-02
*Bulk Viscosity
0., 0.
*Dload
BEAM-1.BEAM_EALL, GRAV, 9.810000000000e+00, 0., 0., -1.
SPHERE-1.SPHERE_EALL, GRAV, 9.810000000000e+00, 0., 0., -1.
*Contact
*Contact Inclusions, ALL EXTERIOR
*Contact Property Assignment
, , FRICTIONLESS_CONTACT
*Output, field, time interval=1.000000000000e-03
*Node Output
U, V
*Element Output, directions=YES
S, LE
*Output, history, time interval=1.000000000000e-03
*Energy Output
ALLKE, ALLIE, ALLSE, ALLVD, ALLWK, ETOTAL
*End Step
