*Heading
Abaqus Explicit fixed-dt linear-penalty sphere free fall onto rigid plane
*Preprint, echo=NO, model=NO, history=NO, contact=NO
*Material, name=BODY_MAT
*Density
1.200000000000e+03
*Elastic
5.000000000000e+07, 3.000000000000e-01
*Surface Interaction, name=FRICTIONLESS_LINEAR_PENALTY
*Surface Behavior, pressure-overclosure=LINEAR
5.000000000000e+09
*Contact Damping, definition=CRITICAL DAMPING FRACTION
0.000000000000e+00
*Friction
0.
*Part, name=FLEX_SPHERE
*Node
1, 0.000000000000e+00, 0.000000000000e+00, 7.000000000000e-02
2, 0.000000000000e+00, 0.000000000000e+00, 1.200000000000e-01
3, 1.294095225513e-02, 0.000000000000e+00, 1.182962913145e-01
4, 1.250000000000e-02, 3.349364905389e-03, 1.182962913145e-01
5, 1.120719340210e-02, 6.470476127563e-03, 1.182962913145e-01
6, 9.150635094611e-03, 9.150635094611e-03, 1.182962913145e-01
7, 6.470476127563e-03, 1.120719340210e-02, 1.182962913145e-01
8, 3.349364905389e-03, 1.250000000000e-02, 1.182962913145e-01
9, 7.924047878579e-19, 1.294095225513e-02, 1.182962913145e-01
10, -3.349364905389e-03, 1.250000000000e-02, 1.182962913145e-01
11, -6.470476127563e-03, 1.120719340210e-02, 1.182962913145e-01
12, -9.150635094611e-03, 9.150635094611e-03, 1.182962913145e-01
13, -1.120719340210e-02, 6.470476127563e-03, 1.182962913145e-01
14, -1.250000000000e-02, 3.349364905389e-03, 1.182962913145e-01
15, -1.294095225513e-02, 1.584809575716e-18, 1.182962913145e-01
16, -1.250000000000e-02, -3.349364905389e-03, 1.182962913145e-01
17, -1.120719340210e-02, -6.470476127563e-03, 1.182962913145e-01
18, -9.150635094611e-03, -9.150635094611e-03, 1.182962913145e-01
19, -6.470476127563e-03, -1.120719340210e-02, 1.182962913145e-01
20, -3.349364905389e-03, -1.250000000000e-02, 1.182962913145e-01
21, -2.377214363574e-18, -1.294095225513e-02, 1.182962913145e-01
22, 3.349364905389e-03, -1.250000000000e-02, 1.182962913145e-01
23, 6.470476127563e-03, -1.120719340210e-02, 1.182962913145e-01
24, 9.150635094611e-03, -9.150635094611e-03, 1.182962913145e-01
25, 1.120719340210e-02, -6.470476127563e-03, 1.182962913145e-01
26, 1.250000000000e-02, -3.349364905389e-03, 1.182962913145e-01
27, 2.500000000000e-02, 0.000000000000e+00, 1.133012701892e-01
28, 2.414814565723e-02, 6.470476127563e-03, 1.133012701892e-01
29, 2.165063509461e-02, 1.250000000000e-02, 1.133012701892e-01
30, 1.767766952966e-02, 1.767766952966e-02, 1.133012701892e-01
31, 1.250000000000e-02, 2.165063509461e-02, 1.133012701892e-01
32, 6.470476127563e-03, 2.414814565723e-02, 1.133012701892e-01
33, 1.530808498934e-18, 2.500000000000e-02, 1.133012701892e-01
34, -6.470476127563e-03, 2.414814565723e-02, 1.133012701892e-01
35, -1.250000000000e-02, 2.165063509461e-02, 1.133012701892e-01
36, -1.767766952966e-02, 1.767766952966e-02, 1.133012701892e-01
37, -2.165063509461e-02, 1.250000000000e-02, 1.133012701892e-01
38, -2.414814565723e-02, 6.470476127563e-03, 1.133012701892e-01
39, -2.500000000000e-02, 3.061616997868e-18, 1.133012701892e-01
40, -2.414814565723e-02, -6.470476127563e-03, 1.133012701892e-01
41, -2.165063509461e-02, -1.250000000000e-02, 1.133012701892e-01
42, -1.767766952966e-02, -1.767766952966e-02, 1.133012701892e-01
43, -1.250000000000e-02, -2.165063509461e-02, 1.133012701892e-01
44, -6.470476127563e-03, -2.414814565723e-02, 1.133012701892e-01
45, -4.592425496803e-18, -2.500000000000e-02, 1.133012701892e-01
46, 6.470476127563e-03, -2.414814565723e-02, 1.133012701892e-01
47, 1.250000000000e-02, -2.165063509461e-02, 1.133012701892e-01
48, 1.767766952966e-02, -1.767766952966e-02, 1.133012701892e-01
49, 2.165063509461e-02, -1.250000000000e-02, 1.133012701892e-01
50, 2.414814565723e-02, -6.470476127563e-03, 1.133012701892e-01
51, 3.535533905933e-02, 0.000000000000e+00, 1.053553390593e-01
52, 3.415063509461e-02, 9.150635094611e-03, 1.053553390593e-01
53, 3.061862178479e-02, 1.767766952966e-02, 1.053553390593e-01
54, 2.500000000000e-02, 2.500000000000e-02, 1.053553390593e-01
55, 1.767766952966e-02, 3.061862178479e-02, 1.053553390593e-01
56, 9.150635094611e-03, 3.415063509461e-02, 1.053553390593e-01
57, 2.164890140589e-18, 3.535533905933e-02, 1.053553390593e-01
58, -9.150635094611e-03, 3.415063509461e-02, 1.053553390593e-01
59, -1.767766952966e-02, 3.061862178479e-02, 1.053553390593e-01
60, -2.500000000000e-02, 2.500000000000e-02, 1.053553390593e-01
61, -3.061862178479e-02, 1.767766952966e-02, 1.053553390593e-01
62, -3.415063509461e-02, 9.150635094611e-03, 1.053553390593e-01
63, -3.535533905933e-02, 4.329780281177e-18, 1.053553390593e-01
64, -3.415063509461e-02, -9.150635094611e-03, 1.053553390593e-01
65, -3.061862178479e-02, -1.767766952966e-02, 1.053553390593e-01
66, -2.500000000000e-02, -2.500000000000e-02, 1.053553390593e-01
67, -1.767766952966e-02, -3.061862178479e-02, 1.053553390593e-01
68, -9.150635094611e-03, -3.415063509461e-02, 1.053553390593e-01
69, -6.494670421766e-18, -3.535533905933e-02, 1.053553390593e-01
70, 9.150635094611e-03, -3.415063509461e-02, 1.053553390593e-01
71, 1.767766952966e-02, -3.061862178479e-02, 1.053553390593e-01
72, 2.500000000000e-02, -2.500000000000e-02, 1.053553390593e-01
73, 3.061862178479e-02, -1.767766952966e-02, 1.053553390593e-01
74, 3.415063509461e-02, -9.150635094611e-03, 1.053553390593e-01
75, 4.330127018922e-02, 0.000000000000e+00, 9.500000000000e-02
76, 4.182581518689e-02, 1.120719340210e-02, 9.500000000000e-02
77, 3.750000000000e-02, 2.165063509461e-02, 9.500000000000e-02
78, 3.061862178479e-02, 3.061862178479e-02, 9.500000000000e-02
79, 2.165063509461e-02, 3.750000000000e-02, 9.500000000000e-02
80, 1.120719340210e-02, 4.182581518689e-02, 9.500000000000e-02
81, 2.651438096812e-18, 4.330127018922e-02, 9.500000000000e-02
82, -1.120719340210e-02, 4.182581518689e-02, 9.500000000000e-02
83, -2.165063509461e-02, 3.750000000000e-02, 9.500000000000e-02
84, -3.061862178479e-02, 3.061862178479e-02, 9.500000000000e-02
85, -3.750000000000e-02, 2.165063509461e-02, 9.500000000000e-02
86, -4.182581518689e-02, 1.120719340210e-02, 9.500000000000e-02
87, -4.330127018922e-02, 5.302876193625e-18, 9.500000000000e-02
88, -4.182581518689e-02, -1.120719340210e-02, 9.500000000000e-02
89, -3.750000000000e-02, -2.165063509461e-02, 9.500000000000e-02
90, -3.061862178479e-02, -3.061862178479e-02, 9.500000000000e-02
91, -2.165063509461e-02, -3.750000000000e-02, 9.500000000000e-02
92, -1.120719340210e-02, -4.182581518689e-02, 9.500000000000e-02
93, -7.954314290437e-18, -4.330127018922e-02, 9.500000000000e-02
94, 1.120719340210e-02, -4.182581518689e-02, 9.500000000000e-02
95, 2.165063509461e-02, -3.750000000000e-02, 9.500000000000e-02
96, 3.061862178479e-02, -3.061862178479e-02, 9.500000000000e-02
97, 3.750000000000e-02, -2.165063509461e-02, 9.500000000000e-02
98, 4.182581518689e-02, -1.120719340210e-02, 9.500000000000e-02
99, 4.829629131445e-02, 0.000000000000e+00, 8.294095225513e-02
100, 4.665063509461e-02, 1.250000000000e-02, 8.294095225513e-02
101, 4.182581518689e-02, 2.414814565723e-02, 8.294095225513e-02
102, 3.415063509461e-02, 3.415063509461e-02, 8.294095225513e-02
103, 2.414814565723e-02, 4.182581518689e-02, 8.294095225513e-02
104, 1.250000000000e-02, 4.665063509461e-02, 8.294095225513e-02
105, 2.957294928447e-18, 4.829629131445e-02, 8.294095225513e-02
106, -1.250000000000e-02, 4.665063509461e-02, 8.294095225513e-02
107, -2.414814565723e-02, 4.182581518689e-02, 8.294095225513e-02
108, -3.415063509461e-02, 3.415063509461e-02, 8.294095225513e-02
109, -4.182581518689e-02, 2.414814565723e-02, 8.294095225513e-02
110, -4.665063509461e-02, 1.250000000000e-02, 8.294095225513e-02
111, -4.829629131445e-02, 5.914589856893e-18, 8.294095225513e-02
112, -4.665063509461e-02, -1.250000000000e-02, 8.294095225513e-02
113, -4.182581518689e-02, -2.414814565723e-02, 8.294095225513e-02
114, -3.415063509461e-02, -3.415063509461e-02, 8.294095225513e-02
115, -2.414814565723e-02, -4.182581518689e-02, 8.294095225513e-02
116, -1.250000000000e-02, -4.665063509461e-02, 8.294095225513e-02
117, -8.871884785340e-18, -4.829629131445e-02, 8.294095225513e-02
118, 1.250000000000e-02, -4.665063509461e-02, 8.294095225513e-02
119, 2.414814565723e-02, -4.182581518689e-02, 8.294095225513e-02
120, 3.415063509461e-02, -3.415063509461e-02, 8.294095225513e-02
121, 4.182581518689e-02, -2.414814565723e-02, 8.294095225513e-02
122, 4.665063509461e-02, -1.250000000000e-02, 8.294095225513e-02
123, 5.000000000000e-02, 0.000000000000e+00, 7.000000000000e-02
124, 4.829629131445e-02, 1.294095225513e-02, 7.000000000000e-02
125, 4.330127018922e-02, 2.500000000000e-02, 7.000000000000e-02
126, 3.535533905933e-02, 3.535533905933e-02, 7.000000000000e-02
127, 2.500000000000e-02, 4.330127018922e-02, 7.000000000000e-02
128, 1.294095225513e-02, 4.829629131445e-02, 7.000000000000e-02
129, 3.061616997868e-18, 5.000000000000e-02, 7.000000000000e-02
130, -1.294095225513e-02, 4.829629131445e-02, 7.000000000000e-02
131, -2.500000000000e-02, 4.330127018922e-02, 7.000000000000e-02
132, -3.535533905933e-02, 3.535533905933e-02, 7.000000000000e-02
133, -4.330127018922e-02, 2.500000000000e-02, 7.000000000000e-02
134, -4.829629131445e-02, 1.294095225513e-02, 7.000000000000e-02
135, -5.000000000000e-02, 6.123233995737e-18, 7.000000000000e-02
136, -4.829629131445e-02, -1.294095225513e-02, 7.000000000000e-02
137, -4.330127018922e-02, -2.500000000000e-02, 7.000000000000e-02
138, -3.535533905933e-02, -3.535533905933e-02, 7.000000000000e-02
139, -2.500000000000e-02, -4.330127018922e-02, 7.000000000000e-02
140, -1.294095225513e-02, -4.829629131445e-02, 7.000000000000e-02
141, -9.184850993605e-18, -5.000000000000e-02, 7.000000000000e-02
142, 1.294095225513e-02, -4.829629131445e-02, 7.000000000000e-02
143, 2.500000000000e-02, -4.330127018922e-02, 7.000000000000e-02
144, 3.535533905933e-02, -3.535533905933e-02, 7.000000000000e-02
145, 4.330127018922e-02, -2.500000000000e-02, 7.000000000000e-02
146, 4.829629131445e-02, -1.294095225513e-02, 7.000000000000e-02
147, 4.829629131445e-02, 0.000000000000e+00, 5.705904774487e-02
148, 4.665063509461e-02, 1.250000000000e-02, 5.705904774487e-02
149, 4.182581518689e-02, 2.414814565723e-02, 5.705904774487e-02
150, 3.415063509461e-02, 3.415063509461e-02, 5.705904774487e-02
151, 2.414814565723e-02, 4.182581518689e-02, 5.705904774487e-02
152, 1.250000000000e-02, 4.665063509461e-02, 5.705904774487e-02
153, 2.957294928447e-18, 4.829629131445e-02, 5.705904774487e-02
154, -1.250000000000e-02, 4.665063509461e-02, 5.705904774487e-02
155, -2.414814565723e-02, 4.182581518689e-02, 5.705904774487e-02
156, -3.415063509461e-02, 3.415063509461e-02, 5.705904774487e-02
157, -4.182581518689e-02, 2.414814565723e-02, 5.705904774487e-02
158, -4.665063509461e-02, 1.250000000000e-02, 5.705904774487e-02
159, -4.829629131445e-02, 5.914589856893e-18, 5.705904774487e-02
160, -4.665063509461e-02, -1.250000000000e-02, 5.705904774487e-02
161, -4.182581518689e-02, -2.414814565723e-02, 5.705904774487e-02
162, -3.415063509461e-02, -3.415063509461e-02, 5.705904774487e-02
163, -2.414814565723e-02, -4.182581518689e-02, 5.705904774487e-02
164, -1.250000000000e-02, -4.665063509461e-02, 5.705904774487e-02
165, -8.871884785340e-18, -4.829629131445e-02, 5.705904774487e-02
166, 1.250000000000e-02, -4.665063509461e-02, 5.705904774487e-02
167, 2.414814565723e-02, -4.182581518689e-02, 5.705904774487e-02
168, 3.415063509461e-02, -3.415063509461e-02, 5.705904774487e-02
169, 4.182581518689e-02, -2.414814565723e-02, 5.705904774487e-02
170, 4.665063509461e-02, -1.250000000000e-02, 5.705904774487e-02
171, 4.330127018922e-02, 0.000000000000e+00, 4.500000000000e-02
172, 4.182581518689e-02, 1.120719340210e-02, 4.500000000000e-02
173, 3.750000000000e-02, 2.165063509461e-02, 4.500000000000e-02
174, 3.061862178479e-02, 3.061862178479e-02, 4.500000000000e-02
175, 2.165063509461e-02, 3.750000000000e-02, 4.500000000000e-02
176, 1.120719340210e-02, 4.182581518689e-02, 4.500000000000e-02
177, 2.651438096812e-18, 4.330127018922e-02, 4.500000000000e-02
178, -1.120719340210e-02, 4.182581518689e-02, 4.500000000000e-02
179, -2.165063509461e-02, 3.750000000000e-02, 4.500000000000e-02
180, -3.061862178479e-02, 3.061862178479e-02, 4.500000000000e-02
181, -3.750000000000e-02, 2.165063509461e-02, 4.500000000000e-02
182, -4.182581518689e-02, 1.120719340210e-02, 4.500000000000e-02
183, -4.330127018922e-02, 5.302876193625e-18, 4.500000000000e-02
184, -4.182581518689e-02, -1.120719340210e-02, 4.500000000000e-02
185, -3.750000000000e-02, -2.165063509461e-02, 4.500000000000e-02
186, -3.061862178479e-02, -3.061862178479e-02, 4.500000000000e-02
187, -2.165063509461e-02, -3.750000000000e-02, 4.500000000000e-02
188, -1.120719340210e-02, -4.182581518689e-02, 4.500000000000e-02
189, -7.954314290437e-18, -4.330127018922e-02, 4.500000000000e-02
190, 1.120719340210e-02, -4.182581518689e-02, 4.500000000000e-02
191, 2.165063509461e-02, -3.750000000000e-02, 4.500000000000e-02
192, 3.061862178479e-02, -3.061862178479e-02, 4.500000000000e-02
193, 3.750000000000e-02, -2.165063509461e-02, 4.500000000000e-02
194, 4.182581518689e-02, -1.120719340210e-02, 4.500000000000e-02
195, 3.535533905933e-02, 0.000000000000e+00, 3.464466094067e-02
196, 3.415063509461e-02, 9.150635094611e-03, 3.464466094067e-02
197, 3.061862178479e-02, 1.767766952966e-02, 3.464466094067e-02
198, 2.500000000000e-02, 2.500000000000e-02, 3.464466094067e-02
199, 1.767766952966e-02, 3.061862178479e-02, 3.464466094067e-02
200, 9.150635094611e-03, 3.415063509461e-02, 3.464466094067e-02
201, 2.164890140589e-18, 3.535533905933e-02, 3.464466094067e-02
202, -9.150635094611e-03, 3.415063509461e-02, 3.464466094067e-02
203, -1.767766952966e-02, 3.061862178479e-02, 3.464466094067e-02
204, -2.500000000000e-02, 2.500000000000e-02, 3.464466094067e-02
205, -3.061862178479e-02, 1.767766952966e-02, 3.464466094067e-02
206, -3.415063509461e-02, 9.150635094611e-03, 3.464466094067e-02
207, -3.535533905933e-02, 4.329780281177e-18, 3.464466094067e-02
208, -3.415063509461e-02, -9.150635094611e-03, 3.464466094067e-02
209, -3.061862178479e-02, -1.767766952966e-02, 3.464466094067e-02
210, -2.500000000000e-02, -2.500000000000e-02, 3.464466094067e-02
211, -1.767766952966e-02, -3.061862178479e-02, 3.464466094067e-02
212, -9.150635094611e-03, -3.415063509461e-02, 3.464466094067e-02
213, -6.494670421766e-18, -3.535533905933e-02, 3.464466094067e-02
214, 9.150635094611e-03, -3.415063509461e-02, 3.464466094067e-02
215, 1.767766952966e-02, -3.061862178479e-02, 3.464466094067e-02
216, 2.500000000000e-02, -2.500000000000e-02, 3.464466094067e-02
217, 3.061862178479e-02, -1.767766952966e-02, 3.464466094067e-02
218, 3.415063509461e-02, -9.150635094611e-03, 3.464466094067e-02
219, 2.500000000000e-02, 0.000000000000e+00, 2.669872981078e-02
220, 2.414814565723e-02, 6.470476127563e-03, 2.669872981078e-02
221, 2.165063509461e-02, 1.250000000000e-02, 2.669872981078e-02
222, 1.767766952966e-02, 1.767766952966e-02, 2.669872981078e-02
223, 1.250000000000e-02, 2.165063509461e-02, 2.669872981078e-02
224, 6.470476127563e-03, 2.414814565723e-02, 2.669872981078e-02
225, 1.530808498934e-18, 2.500000000000e-02, 2.669872981078e-02
226, -6.470476127563e-03, 2.414814565723e-02, 2.669872981078e-02
227, -1.250000000000e-02, 2.165063509461e-02, 2.669872981078e-02
228, -1.767766952966e-02, 1.767766952966e-02, 2.669872981078e-02
229, -2.165063509461e-02, 1.250000000000e-02, 2.669872981078e-02
230, -2.414814565723e-02, 6.470476127563e-03, 2.669872981078e-02
231, -2.500000000000e-02, 3.061616997868e-18, 2.669872981078e-02
232, -2.414814565723e-02, -6.470476127563e-03, 2.669872981078e-02
233, -2.165063509461e-02, -1.250000000000e-02, 2.669872981078e-02
234, -1.767766952966e-02, -1.767766952966e-02, 2.669872981078e-02
235, -1.250000000000e-02, -2.165063509461e-02, 2.669872981078e-02
236, -6.470476127563e-03, -2.414814565723e-02, 2.669872981078e-02
237, -4.592425496803e-18, -2.500000000000e-02, 2.669872981078e-02
238, 6.470476127563e-03, -2.414814565723e-02, 2.669872981078e-02
239, 1.250000000000e-02, -2.165063509461e-02, 2.669872981078e-02
240, 1.767766952966e-02, -1.767766952966e-02, 2.669872981078e-02
241, 2.165063509461e-02, -1.250000000000e-02, 2.669872981078e-02
242, 2.414814565723e-02, -6.470476127563e-03, 2.669872981078e-02
243, 1.294095225513e-02, 0.000000000000e+00, 2.170370868555e-02
244, 1.250000000000e-02, 3.349364905389e-03, 2.170370868555e-02
245, 1.120719340210e-02, 6.470476127563e-03, 2.170370868555e-02
246, 9.150635094611e-03, 9.150635094611e-03, 2.170370868555e-02
247, 6.470476127563e-03, 1.120719340210e-02, 2.170370868555e-02
248, 3.349364905389e-03, 1.250000000000e-02, 2.170370868555e-02
249, 7.924047878579e-19, 1.294095225513e-02, 2.170370868555e-02
250, -3.349364905389e-03, 1.250000000000e-02, 2.170370868555e-02
251, -6.470476127563e-03, 1.120719340210e-02, 2.170370868555e-02
252, -9.150635094611e-03, 9.150635094611e-03, 2.170370868555e-02
253, -1.120719340210e-02, 6.470476127563e-03, 2.170370868555e-02
254, -1.250000000000e-02, 3.349364905389e-03, 2.170370868555e-02
255, -1.294095225513e-02, 1.584809575716e-18, 2.170370868555e-02
256, -1.250000000000e-02, -3.349364905389e-03, 2.170370868555e-02
257, -1.120719340210e-02, -6.470476127563e-03, 2.170370868555e-02
258, -9.150635094611e-03, -9.150635094611e-03, 2.170370868555e-02
259, -6.470476127563e-03, -1.120719340210e-02, 2.170370868555e-02
260, -3.349364905389e-03, -1.250000000000e-02, 2.170370868555e-02
261, -2.377214363574e-18, -1.294095225513e-02, 2.170370868555e-02
262, 3.349364905389e-03, -1.250000000000e-02, 2.170370868555e-02
263, 6.470476127563e-03, -1.120719340210e-02, 2.170370868555e-02
264, 9.150635094611e-03, -9.150635094611e-03, 2.170370868555e-02
265, 1.120719340210e-02, -6.470476127563e-03, 2.170370868555e-02
266, 1.250000000000e-02, -3.349364905389e-03, 2.170370868555e-02
267, 0.000000000000e+00, 0.000000000000e+00, 2.000000000000e-02
*Element, type=C3D4, elset=SPHERE_EALL
1, 1, 2, 3, 4
2, 1, 2, 4, 5
3, 1, 2, 5, 6
4, 1, 2, 6, 7
5, 1, 2, 7, 8
6, 1, 2, 8, 9
7, 1, 2, 9, 10
8, 1, 2, 10, 11
9, 1, 2, 11, 12
10, 1, 2, 12, 13
11, 1, 2, 13, 14
12, 1, 2, 14, 15
13, 1, 2, 15, 16
14, 1, 2, 16, 17
15, 1, 2, 17, 18
16, 1, 2, 18, 19
17, 1, 2, 19, 20
18, 1, 2, 20, 21
19, 1, 2, 21, 22
20, 1, 2, 22, 23
21, 1, 2, 23, 24
22, 1, 2, 24, 25
23, 1, 2, 25, 26
24, 1, 2, 26, 3
25, 1, 3, 28, 4
26, 1, 3, 27, 28
27, 1, 4, 29, 5
28, 1, 4, 28, 29
29, 1, 5, 30, 6
30, 1, 5, 29, 30
31, 1, 6, 31, 7
32, 1, 6, 30, 31
33, 1, 7, 32, 8
34, 1, 7, 31, 32
35, 1, 8, 33, 9
36, 1, 8, 32, 33
37, 1, 9, 34, 10
38, 1, 9, 33, 34
39, 1, 10, 35, 11
40, 1, 10, 34, 35
41, 1, 11, 36, 12
42, 1, 11, 35, 36
43, 1, 12, 37, 13
44, 1, 12, 36, 37
45, 1, 13, 38, 14
46, 1, 13, 37, 38
47, 1, 14, 39, 15
48, 1, 14, 38, 39
49, 1, 15, 40, 16
50, 1, 15, 39, 40
51, 1, 16, 41, 17
52, 1, 16, 40, 41
53, 1, 17, 42, 18
54, 1, 17, 41, 42
55, 1, 18, 43, 19
56, 1, 18, 42, 43
57, 1, 19, 44, 20
58, 1, 19, 43, 44
59, 1, 20, 45, 21
60, 1, 20, 44, 45
61, 1, 21, 46, 22
62, 1, 21, 45, 46
63, 1, 22, 47, 23
64, 1, 22, 46, 47
65, 1, 23, 48, 24
66, 1, 23, 47, 48
67, 1, 24, 49, 25
68, 1, 24, 48, 49
69, 1, 25, 50, 26
70, 1, 25, 49, 50
71, 1, 26, 27, 3
72, 1, 26, 50, 27
73, 1, 27, 52, 28
74, 1, 27, 51, 52
75, 1, 28, 53, 29
76, 1, 28, 52, 53
77, 1, 29, 54, 30
78, 1, 29, 53, 54
79, 1, 30, 55, 31
80, 1, 30, 54, 55
81, 1, 31, 56, 32
82, 1, 31, 55, 56
83, 1, 32, 57, 33
84, 1, 32, 56, 57
85, 1, 33, 58, 34
86, 1, 33, 57, 58
87, 1, 34, 59, 35
88, 1, 34, 58, 59
89, 1, 35, 60, 36
90, 1, 35, 59, 60
91, 1, 36, 61, 37
92, 1, 36, 60, 61
93, 1, 37, 62, 38
94, 1, 37, 61, 62
95, 1, 38, 63, 39
96, 1, 38, 62, 63
97, 1, 39, 64, 40
98, 1, 39, 63, 64
99, 1, 40, 65, 41
100, 1, 40, 64, 65
101, 1, 41, 66, 42
102, 1, 41, 65, 66
103, 1, 42, 67, 43
104, 1, 42, 66, 67
105, 1, 43, 68, 44
106, 1, 43, 67, 68
107, 1, 44, 69, 45
108, 1, 44, 68, 69
109, 1, 45, 70, 46
110, 1, 45, 69, 70
111, 1, 46, 71, 47
112, 1, 46, 70, 71
113, 1, 47, 72, 48
114, 1, 47, 71, 72
115, 1, 48, 73, 49
116, 1, 48, 72, 73
117, 1, 49, 74, 50
118, 1, 49, 73, 74
119, 1, 50, 51, 27
120, 1, 50, 74, 51
121, 1, 51, 76, 52
122, 1, 51, 75, 76
123, 1, 52, 77, 53
124, 1, 52, 76, 77
125, 1, 53, 78, 54
126, 1, 53, 77, 78
127, 1, 54, 79, 55
128, 1, 54, 78, 79
129, 1, 55, 80, 56
130, 1, 55, 79, 80
131, 1, 56, 81, 57
132, 1, 56, 80, 81
133, 1, 57, 82, 58
134, 1, 57, 81, 82
135, 1, 58, 83, 59
136, 1, 58, 82, 83
137, 1, 59, 84, 60
138, 1, 59, 83, 84
139, 1, 60, 85, 61
140, 1, 60, 84, 85
141, 1, 61, 86, 62
142, 1, 61, 85, 86
143, 1, 62, 87, 63
144, 1, 62, 86, 87
145, 1, 63, 88, 64
146, 1, 63, 87, 88
147, 1, 64, 89, 65
148, 1, 64, 88, 89
149, 1, 65, 90, 66
150, 1, 65, 89, 90
151, 1, 66, 91, 67
152, 1, 66, 90, 91
153, 1, 67, 92, 68
154, 1, 67, 91, 92
155, 1, 68, 93, 69
156, 1, 68, 92, 93
157, 1, 69, 94, 70
158, 1, 69, 93, 94
159, 1, 70, 95, 71
160, 1, 70, 94, 95
161, 1, 71, 96, 72
162, 1, 71, 95, 96
163, 1, 72, 97, 73
164, 1, 72, 96, 97
165, 1, 73, 98, 74
166, 1, 73, 97, 98
167, 1, 74, 75, 51
168, 1, 74, 98, 75
169, 1, 75, 100, 76
170, 1, 75, 99, 100
171, 1, 76, 101, 77
172, 1, 76, 100, 101
173, 1, 77, 102, 78
174, 1, 77, 101, 102
175, 1, 78, 103, 79
176, 1, 78, 102, 103
177, 1, 79, 104, 80
178, 1, 79, 103, 104
179, 1, 80, 105, 81
180, 1, 80, 104, 105
181, 1, 81, 106, 82
182, 1, 81, 105, 106
183, 1, 82, 107, 83
184, 1, 82, 106, 107
185, 1, 83, 108, 84
186, 1, 83, 107, 108
187, 1, 84, 109, 85
188, 1, 84, 108, 109
189, 1, 85, 110, 86
190, 1, 85, 109, 110
191, 1, 86, 111, 87
192, 1, 86, 110, 111
193, 1, 87, 112, 88
194, 1, 87, 111, 112
195, 1, 88, 113, 89
196, 1, 88, 112, 113
197, 1, 89, 114, 90
198, 1, 89, 113, 114
199, 1, 90, 115, 91
200, 1, 90, 114, 115
201, 1, 91, 116, 92
202, 1, 91, 115, 116
203, 1, 92, 117, 93
204, 1, 92, 116, 117
205, 1, 93, 118, 94
206, 1, 93, 117, 118
207, 1, 94, 119, 95
208, 1, 94, 118, 119
209, 1, 95, 120, 96
210, 1, 95, 119, 120
211, 1, 96, 121, 97
212, 1, 96, 120, 121
213, 1, 97, 122, 98
214, 1, 97, 121, 122
215, 1, 98, 99, 75
216, 1, 98, 122, 99
217, 1, 99, 124, 100
218, 1, 99, 123, 124
219, 1, 100, 125, 101
220, 1, 100, 124, 125
221, 1, 101, 126, 102
222, 1, 101, 125, 126
223, 1, 102, 127, 103
224, 1, 102, 126, 127
225, 1, 103, 128, 104
226, 1, 103, 127, 128
227, 1, 104, 129, 105
228, 1, 104, 128, 129
229, 1, 105, 130, 106
230, 1, 105, 129, 130
231, 1, 106, 131, 107
232, 1, 106, 130, 131
233, 1, 107, 132, 108
234, 1, 107, 131, 132
235, 1, 108, 133, 109
236, 1, 108, 132, 133
237, 1, 109, 134, 110
238, 1, 109, 133, 134
239, 1, 110, 135, 111
240, 1, 110, 134, 135
241, 1, 111, 136, 112
242, 1, 111, 135, 136
243, 1, 112, 137, 113
244, 1, 112, 136, 137
245, 1, 113, 138, 114
246, 1, 113, 137, 138
247, 1, 114, 139, 115
248, 1, 114, 138, 139
249, 1, 115, 140, 116
250, 1, 115, 139, 140
251, 1, 116, 141, 117
252, 1, 116, 140, 141
253, 1, 117, 142, 118
254, 1, 117, 141, 142
255, 1, 118, 143, 119
256, 1, 118, 142, 143
257, 1, 119, 144, 120
258, 1, 119, 143, 144
259, 1, 120, 145, 121
260, 1, 120, 144, 145
261, 1, 121, 146, 122
262, 1, 121, 145, 146
263, 1, 122, 123, 99
264, 1, 122, 146, 123
265, 1, 123, 148, 124
266, 1, 123, 147, 148
267, 1, 124, 149, 125
268, 1, 124, 148, 149
269, 1, 125, 150, 126
270, 1, 125, 149, 150
271, 1, 126, 151, 127
272, 1, 126, 150, 151
273, 1, 127, 152, 128
274, 1, 127, 151, 152
275, 1, 128, 153, 129
276, 1, 128, 152, 153
277, 1, 129, 154, 130
278, 1, 129, 153, 154
279, 1, 130, 155, 131
280, 1, 130, 154, 155
281, 1, 131, 156, 132
282, 1, 131, 155, 156
283, 1, 132, 157, 133
284, 1, 132, 156, 157
285, 1, 133, 158, 134
286, 1, 133, 157, 158
287, 1, 134, 159, 135
288, 1, 134, 158, 159
289, 1, 135, 160, 136
290, 1, 135, 159, 160
291, 1, 136, 161, 137
292, 1, 136, 160, 161
293, 1, 137, 162, 138
294, 1, 137, 161, 162
295, 1, 138, 163, 139
296, 1, 138, 162, 163
297, 1, 139, 164, 140
298, 1, 139, 163, 164
299, 1, 140, 165, 141
300, 1, 140, 164, 165
301, 1, 141, 166, 142
302, 1, 141, 165, 166
303, 1, 142, 167, 143
304, 1, 142, 166, 167
305, 1, 143, 168, 144
306, 1, 143, 167, 168
307, 1, 144, 169, 145
308, 1, 144, 168, 169
309, 1, 145, 170, 146
310, 1, 145, 169, 170
311, 1, 146, 147, 123
312, 1, 146, 170, 147
313, 1, 147, 172, 148
314, 1, 147, 171, 172
315, 1, 148, 173, 149
316, 1, 148, 172, 173
317, 1, 149, 174, 150
318, 1, 149, 173, 174
319, 1, 150, 175, 151
320, 1, 150, 174, 175
321, 1, 151, 176, 152
322, 1, 151, 175, 176
323, 1, 152, 177, 153
324, 1, 152, 176, 177
325, 1, 153, 178, 154
326, 1, 153, 177, 178
327, 1, 154, 179, 155
328, 1, 154, 178, 179
329, 1, 155, 180, 156
330, 1, 155, 179, 180
331, 1, 156, 181, 157
332, 1, 156, 180, 181
333, 1, 157, 182, 158
334, 1, 157, 181, 182
335, 1, 158, 183, 159
336, 1, 158, 182, 183
337, 1, 159, 184, 160
338, 1, 159, 183, 184
339, 1, 160, 185, 161
340, 1, 160, 184, 185
341, 1, 161, 186, 162
342, 1, 161, 185, 186
343, 1, 162, 187, 163
344, 1, 162, 186, 187
345, 1, 163, 188, 164
346, 1, 163, 187, 188
347, 1, 164, 189, 165
348, 1, 164, 188, 189
349, 1, 165, 190, 166
350, 1, 165, 189, 190
351, 1, 166, 191, 167
352, 1, 166, 190, 191
353, 1, 167, 192, 168
354, 1, 167, 191, 192
355, 1, 168, 193, 169
356, 1, 168, 192, 193
357, 1, 169, 194, 170
358, 1, 169, 193, 194
359, 1, 170, 171, 147
360, 1, 170, 194, 171
361, 1, 171, 196, 172
362, 1, 171, 195, 196
363, 1, 172, 197, 173
364, 1, 172, 196, 197
365, 1, 173, 198, 174
366, 1, 173, 197, 198
367, 1, 174, 199, 175
368, 1, 174, 198, 199
369, 1, 175, 200, 176
370, 1, 175, 199, 200
371, 1, 176, 201, 177
372, 1, 176, 200, 201
373, 1, 177, 202, 178
374, 1, 177, 201, 202
375, 1, 178, 203, 179
376, 1, 178, 202, 203
377, 1, 179, 204, 180
378, 1, 179, 203, 204
379, 1, 180, 205, 181
380, 1, 180, 204, 205
381, 1, 181, 206, 182
382, 1, 181, 205, 206
383, 1, 182, 207, 183
384, 1, 182, 206, 207
385, 1, 183, 208, 184
386, 1, 183, 207, 208
387, 1, 184, 209, 185
388, 1, 184, 208, 209
389, 1, 185, 210, 186
390, 1, 185, 209, 210
391, 1, 186, 211, 187
392, 1, 186, 210, 211
393, 1, 187, 212, 188
394, 1, 187, 211, 212
395, 1, 188, 213, 189
396, 1, 188, 212, 213
397, 1, 189, 214, 190
398, 1, 189, 213, 214
399, 1, 190, 215, 191
400, 1, 190, 214, 215
401, 1, 191, 216, 192
402, 1, 191, 215, 216
403, 1, 192, 217, 193
404, 1, 192, 216, 217
405, 1, 193, 218, 194
406, 1, 193, 217, 218
407, 1, 194, 195, 171
408, 1, 194, 218, 195
409, 1, 195, 220, 196
410, 1, 195, 219, 220
411, 1, 196, 221, 197
412, 1, 196, 220, 221
413, 1, 197, 222, 198
414, 1, 197, 221, 222
415, 1, 198, 223, 199
416, 1, 198, 222, 223
417, 1, 199, 224, 200
418, 1, 199, 223, 224
419, 1, 200, 225, 201
420, 1, 200, 224, 225
421, 1, 201, 226, 202
422, 1, 201, 225, 226
423, 1, 202, 227, 203
424, 1, 202, 226, 227
425, 1, 203, 228, 204
426, 1, 203, 227, 228
427, 1, 204, 229, 205
428, 1, 204, 228, 229
429, 1, 205, 230, 206
430, 1, 205, 229, 230
431, 1, 206, 231, 207
432, 1, 206, 230, 231
433, 1, 207, 232, 208
434, 1, 207, 231, 232
435, 1, 208, 233, 209
436, 1, 208, 232, 233
437, 1, 209, 234, 210
438, 1, 209, 233, 234
439, 1, 210, 235, 211
440, 1, 210, 234, 235
441, 1, 211, 236, 212
442, 1, 211, 235, 236
443, 1, 212, 237, 213
444, 1, 212, 236, 237
445, 1, 213, 238, 214
446, 1, 213, 237, 238
447, 1, 214, 239, 215
448, 1, 214, 238, 239
449, 1, 215, 240, 216
450, 1, 215, 239, 240
451, 1, 216, 241, 217
452, 1, 216, 240, 241
453, 1, 217, 242, 218
454, 1, 217, 241, 242
455, 1, 218, 219, 195
456, 1, 218, 242, 219
457, 1, 219, 244, 220
458, 1, 219, 243, 244
459, 1, 220, 245, 221
460, 1, 220, 244, 245
461, 1, 221, 246, 222
462, 1, 221, 245, 246
463, 1, 222, 247, 223
464, 1, 222, 246, 247
465, 1, 223, 248, 224
466, 1, 223, 247, 248
467, 1, 224, 249, 225
468, 1, 224, 248, 249
469, 1, 225, 250, 226
470, 1, 225, 249, 250
471, 1, 226, 251, 227
472, 1, 226, 250, 251
473, 1, 227, 252, 228
474, 1, 227, 251, 252
475, 1, 228, 253, 229
476, 1, 228, 252, 253
477, 1, 229, 254, 230
478, 1, 229, 253, 254
479, 1, 230, 255, 231
480, 1, 230, 254, 255
481, 1, 231, 256, 232
482, 1, 231, 255, 256
483, 1, 232, 257, 233
484, 1, 232, 256, 257
485, 1, 233, 258, 234
486, 1, 233, 257, 258
487, 1, 234, 259, 235
488, 1, 234, 258, 259
489, 1, 235, 260, 236
490, 1, 235, 259, 260
491, 1, 236, 261, 237
492, 1, 236, 260, 261
493, 1, 237, 262, 238
494, 1, 237, 261, 262
495, 1, 238, 263, 239
496, 1, 238, 262, 263
497, 1, 239, 264, 240
498, 1, 239, 263, 264
499, 1, 240, 265, 241
500, 1, 240, 264, 265
501, 1, 241, 266, 242
502, 1, 241, 265, 266
503, 1, 242, 243, 219
504, 1, 242, 266, 243
505, 1, 267, 244, 243
506, 1, 267, 245, 244
507, 1, 267, 246, 245
508, 1, 267, 247, 246
509, 1, 267, 248, 247
510, 1, 267, 249, 248
511, 1, 267, 250, 249
512, 1, 267, 251, 250
513, 1, 267, 252, 251
514, 1, 267, 253, 252
515, 1, 267, 254, 253
516, 1, 267, 255, 254
517, 1, 267, 256, 255
518, 1, 267, 257, 256
519, 1, 267, 258, 257
520, 1, 267, 259, 258
521, 1, 267, 260, 259
522, 1, 267, 261, 260
523, 1, 267, 262, 261
524, 1, 267, 263, 262
525, 1, 267, 264, 263
526, 1, 267, 265, 264
527, 1, 267, 266, 265
528, 1, 267, 243, 266
*Elset, elset=SPHERE_EALL, generate
1, 528, 1
*Solid Section, elset=SPHERE_EALL, material=BODY_MAT
,
*End Part
*Part, name=RIGID_PLANE
*Node
1, -3.000000000000e-01, -3.000000000000e-01, 0.000000000000e+00
2, 3.000000000000e-01, -3.000000000000e-01, 0.000000000000e+00
3, 3.000000000000e-01, 3.000000000000e-01, 0.000000000000e+00
4, -3.000000000000e-01, 3.000000000000e-01, 0.000000000000e+00
5, 0.000000000000e+00, 0.000000000000e+00, 0.000000000000e+00
*Element, type=R3D4, elset=PLANE_EALL
1, 1, 2, 3, 4
*Nset, nset=PLANE_RP
5
*Rigid Body, ref node=PLANE_RP, elset=PLANE_EALL
*End Part
*Assembly, name=ASSEMBLY
*Instance, name=SPHERE-1, part=FLEX_SPHERE
*End Instance
*Instance, name=PLANE-1, part=RIGID_PLANE
*End Instance
*Nset, nset=BODY_NODES, instance=SPHERE-1
1, 2, 3, 4, 5, 6, 7, 8, 9, 10, 11, 12, 13, 14, 15, 16
17, 18, 19, 20, 21, 22, 23, 24, 25, 26, 27, 28, 29, 30, 31, 32
33, 34, 35, 36, 37, 38, 39, 40, 41, 42, 43, 44, 45, 46, 47, 48
49, 50, 51, 52, 53, 54, 55, 56, 57, 58, 59, 60, 61, 62, 63, 64
65, 66, 67, 68, 69, 70, 71, 72, 73, 74, 75, 76, 77, 78, 79, 80
81, 82, 83, 84, 85, 86, 87, 88, 89, 90, 91, 92, 93, 94, 95, 96
97, 98, 99, 100, 101, 102, 103, 104, 105, 106, 107, 108, 109, 110, 111, 112
113, 114, 115, 116, 117, 118, 119, 120, 121, 122, 123, 124, 125, 126, 127, 128
129, 130, 131, 132, 133, 134, 135, 136, 137, 138, 139, 140, 141, 142, 143, 144
145, 146, 147, 148, 149, 150, 151, 152, 153, 154, 155, 156, 157, 158, 159, 160
161, 162, 163, 164, 165, 166, 167, 168, 169, 170, 171, 172, 173, 174, 175, 176
177, 178, 179, 180, 181, 182, 183, 184, 185, 186, 187, 188, 189, 190, 191, 192
193, 194, 195, 196, 197, 198, 199, 200, 201, 202, 203, 204, 205, 206, 207, 208
209, 210, 211, 212, 213, 214, 215, 216, 217, 218, 219, 220, 221, 222, 223, 224
225, 226, 227, 228, 229, 230, 231, 232, 233, 234, 235, 236, 237, 238, 239, 240
241, 242, 243, 244, 245, 246, 247, 248, 249, 250, 251, 252, 253, 254, 255, 256
257, 258, 259, 260, 261, 262, 263, 264, 265, 266, 267
*End Assembly
*Boundary
PLANE-1.PLANE_RP, ENCASTRE
*Step, name=EXPLICIT_LINEAR_FIXED_DT, nlgeom=YES
*Dynamic, Explicit, DIRECT USER CONTROL
5.000000000000e-06, 1.000000000000e+00
*Bulk Viscosity
0., 0.
*Dload
SPHERE-1.SPHERE_EALL, GRAV, 9.810000000000e+00, 0., 0., -1.
*Contact
*Contact Inclusions, ALL EXTERIOR
*Contact Property Assignment
, , FRICTIONLESS_LINEAR_PENALTY
*Output, field, time interval=1.000000000000e-03
*Node Output
U, V
*Element Output, elset=SPHERE-1.SPHERE_EALL, directions=YES
S, LE
*Output, history, time interval=1.000000000000e-03
*Energy Output
ALLKE, ALLIE, ALLSE, ALLVD, ALLWK, ETOTAL
*End Step
